&CONTROL
  calculation   = 'nscf'
  etot_conv_thr = 4.0000000000d-05
  forc_conv_thr = 1.0000000000d-04
  outdir        = './out/'
  prefix        = 'NbP_bulk'
  pseudo_dir    = './pseudo/'
  tprnfor       = .true.
  tstress       = .true.
  verbosity     = 'high'
/
&SYSTEM
  degauss       = 7.3498618000d-03
  ecutrho       = 3.2000000000d+02
  ecutwfc       = 4.0000000000d+01
  ibrav         = 0
  nat           = 4
  nosym         = .false.
  ntyp          = 2
  occupations   = 'smearing'
  smearing      = 'cold'
/
&ELECTRONS
  conv_thr      = 8.0000000000d-10
  electron_maxstep = 80
  mixing_beta   = 4.0000000000d-01
/
ATOMIC_SPECIES
Nb     92.90638 Nb.pbesol-spn-kjpaw_psl.0.3.0.UPF
P      30.973761 P.pbesol-n-rrkjus_psl.1.0.0.UPF
ATOMIC_POSITIONS crystal
Nb           0.4999230000       0.4999230000       0.9998460000 
Nb           0.7499230000       0.2499230000       0.4998460000 
P            0.9174470000       0.9174470000       0.8348940000 
P            0.1674470000       0.6674470000       0.3348940000 
K_POINTS crystal
500
  0.00000000  0.00000000  0.00000000  2.000000e-03
  0.00000000  0.00000000  0.20000000  2.000000e-03
  0.00000000  0.00000000  0.40000000  2.000000e-03
  0.00000000  0.00000000  0.60000000  2.000000e-03
  0.00000000  0.00000000  0.80000000  2.000000e-03
  0.00000000  0.10000000  0.00000000  2.000000e-03
  0.00000000  0.10000000  0.20000000  2.000000e-03
  0.00000000  0.10000000  0.40000000  2.000000e-03
  0.00000000  0.10000000  0.60000000  2.000000e-03
  0.00000000  0.10000000  0.80000000  2.000000e-03
  0.00000000  0.20000000  0.00000000  2.000000e-03
  0.00000000  0.20000000  0.20000000  2.000000e-03
  0.00000000  0.20000000  0.40000000  2.000000e-03
  0.00000000  0.20000000  0.60000000  2.000000e-03
  0.00000000  0.20000000  0.80000000  2.000000e-03
  0.00000000  0.30000000  0.00000000  2.000000e-03
  0.00000000  0.30000000  0.20000000  2.000000e-03
  0.00000000  0.30000000  0.40000000  2.000000e-03
  0.00000000  0.30000000  0.60000000  2.000000e-03
  0.00000000  0.30000000  0.80000000  2.000000e-03
  0.00000000  0.40000000  0.00000000  2.000000e-03
  0.00000000  0.40000000  0.20000000  2.000000e-03
  0.00000000  0.40000000  0.40000000  2.000000e-03
  0.00000000  0.40000000  0.60000000  2.000000e-03
  0.00000000  0.40000000  0.80000000  2.000000e-03
  0.00000000  0.50000000  0.00000000  2.000000e-03
  0.00000000  0.50000000  0.20000000  2.000000e-03
  0.00000000  0.50000000  0.40000000  2.000000e-03
  0.00000000  0.50000000  0.60000000  2.000000e-03
  0.00000000  0.50000000  0.80000000  2.000000e-03
  0.00000000  0.60000000  0.00000000  2.000000e-03
  0.00000000  0.60000000  0.20000000  2.000000e-03
  0.00000000  0.60000000  0.40000000  2.000000e-03
  0.00000000  0.60000000  0.60000000  2.000000e-03
  0.00000000  0.60000000  0.80000000  2.000000e-03
  0.00000000  0.70000000  0.00000000  2.000000e-03
  0.00000000  0.70000000  0.20000000  2.000000e-03
  0.00000000  0.70000000  0.40000000  2.000000e-03
  0.00000000  0.70000000  0.60000000  2.000000e-03
  0.00000000  0.70000000  0.80000000  2.000000e-03
  0.00000000  0.80000000  0.00000000  2.000000e-03
  0.00000000  0.80000000  0.20000000  2.000000e-03
  0.00000000  0.80000000  0.40000000  2.000000e-03
  0.00000000  0.80000000  0.60000000  2.000000e-03
  0.00000000  0.80000000  0.80000000  2.000000e-03
  0.00000000  0.90000000  0.00000000  2.000000e-03
  0.00000000  0.90000000  0.20000000  2.000000e-03
  0.00000000  0.90000000  0.40000000  2.000000e-03
  0.00000000  0.90000000  0.60000000  2.000000e-03
  0.00000000  0.90000000  0.80000000  2.000000e-03
  0.10000000  0.00000000  0.00000000  2.000000e-03
  0.10000000  0.00000000  0.20000000  2.000000e-03
  0.10000000  0.00000000  0.40000000  2.000000e-03
  0.10000000  0.00000000  0.60000000  2.000000e-03
  0.10000000  0.00000000  0.80000000  2.000000e-03
  0.10000000  0.10000000  0.00000000  2.000000e-03
  0.10000000  0.10000000  0.20000000  2.000000e-03
  0.10000000  0.10000000  0.40000000  2.000000e-03
  0.10000000  0.10000000  0.60000000  2.000000e-03
  0.10000000  0.10000000  0.80000000  2.000000e-03
  0.10000000  0.20000000  0.00000000  2.000000e-03
  0.10000000  0.20000000  0.20000000  2.000000e-03
  0.10000000  0.20000000  0.40000000  2.000000e-03
  0.10000000  0.20000000  0.60000000  2.000000e-03
  0.10000000  0.20000000  0.80000000  2.000000e-03
  0.10000000  0.30000000  0.00000000  2.000000e-03
  0.10000000  0.30000000  0.20000000  2.000000e-03
  0.10000000  0.30000000  0.40000000  2.000000e-03
  0.10000000  0.30000000  0.60000000  2.000000e-03
  0.10000000  0.30000000  0.80000000  2.000000e-03
  0.10000000  0.40000000  0.00000000  2.000000e-03
  0.10000000  0.40000000  0.20000000  2.000000e-03
  0.10000000  0.40000000  0.40000000  2.000000e-03
  0.10000000  0.40000000  0.60000000  2.000000e-03
  0.10000000  0.40000000  0.80000000  2.000000e-03
  0.10000000  0.50000000  0.00000000  2.000000e-03
  0.10000000  0.50000000  0.20000000  2.000000e-03
  0.10000000  0.50000000  0.40000000  2.000000e-03
  0.10000000  0.50000000  0.60000000  2.000000e-03
  0.10000000  0.50000000  0.80000000  2.000000e-03
  0.10000000  0.60000000  0.00000000  2.000000e-03
  0.10000000  0.60000000  0.20000000  2.000000e-03
  0.10000000  0.60000000  0.40000000  2.000000e-03
  0.10000000  0.60000000  0.60000000  2.000000e-03
  0.10000000  0.60000000  0.80000000  2.000000e-03
  0.10000000  0.70000000  0.00000000  2.000000e-03
  0.10000000  0.70000000  0.20000000  2.000000e-03
  0.10000000  0.70000000  0.40000000  2.000000e-03
  0.10000000  0.70000000  0.60000000  2.000000e-03
  0.10000000  0.70000000  0.80000000  2.000000e-03
  0.10000000  0.80000000  0.00000000  2.000000e-03
  0.10000000  0.80000000  0.20000000  2.000000e-03
  0.10000000  0.80000000  0.40000000  2.000000e-03
  0.10000000  0.80000000  0.60000000  2.000000e-03
  0.10000000  0.80000000  0.80000000  2.000000e-03
  0.10000000  0.90000000  0.00000000  2.000000e-03
  0.10000000  0.90000000  0.20000000  2.000000e-03
  0.10000000  0.90000000  0.40000000  2.000000e-03
  0.10000000  0.90000000  0.60000000  2.000000e-03
  0.10000000  0.90000000  0.80000000  2.000000e-03
  0.20000000  0.00000000  0.00000000  2.000000e-03
  0.20000000  0.00000000  0.20000000  2.000000e-03
  0.20000000  0.00000000  0.40000000  2.000000e-03
  0.20000000  0.00000000  0.60000000  2.000000e-03
  0.20000000  0.00000000  0.80000000  2.000000e-03
  0.20000000  0.10000000  0.00000000  2.000000e-03
  0.20000000  0.10000000  0.20000000  2.000000e-03
  0.20000000  0.10000000  0.40000000  2.000000e-03
  0.20000000  0.10000000  0.60000000  2.000000e-03
  0.20000000  0.10000000  0.80000000  2.000000e-03
  0.20000000  0.20000000  0.00000000  2.000000e-03
  0.20000000  0.20000000  0.20000000  2.000000e-03
  0.20000000  0.20000000  0.40000000  2.000000e-03
  0.20000000  0.20000000  0.60000000  2.000000e-03
  0.20000000  0.20000000  0.80000000  2.000000e-03
  0.20000000  0.30000000  0.00000000  2.000000e-03
  0.20000000  0.30000000  0.20000000  2.000000e-03
  0.20000000  0.30000000  0.40000000  2.000000e-03
  0.20000000  0.30000000  0.60000000  2.000000e-03
  0.20000000  0.30000000  0.80000000  2.000000e-03
  0.20000000  0.40000000  0.00000000  2.000000e-03
  0.20000000  0.40000000  0.20000000  2.000000e-03
  0.20000000  0.40000000  0.40000000  2.000000e-03
  0.20000000  0.40000000  0.60000000  2.000000e-03
  0.20000000  0.40000000  0.80000000  2.000000e-03
  0.20000000  0.50000000  0.00000000  2.000000e-03
  0.20000000  0.50000000  0.20000000  2.000000e-03
  0.20000000  0.50000000  0.40000000  2.000000e-03
  0.20000000  0.50000000  0.60000000  2.000000e-03
  0.20000000  0.50000000  0.80000000  2.000000e-03
  0.20000000  0.60000000  0.00000000  2.000000e-03
  0.20000000  0.60000000  0.20000000  2.000000e-03
  0.20000000  0.60000000  0.40000000  2.000000e-03
  0.20000000  0.60000000  0.60000000  2.000000e-03
  0.20000000  0.60000000  0.80000000  2.000000e-03
  0.20000000  0.70000000  0.00000000  2.000000e-03
  0.20000000  0.70000000  0.20000000  2.000000e-03
  0.20000000  0.70000000  0.40000000  2.000000e-03
  0.20000000  0.70000000  0.60000000  2.000000e-03
  0.20000000  0.70000000  0.80000000  2.000000e-03
  0.20000000  0.80000000  0.00000000  2.000000e-03
  0.20000000  0.80000000  0.20000000  2.000000e-03
  0.20000000  0.80000000  0.40000000  2.000000e-03
  0.20000000  0.80000000  0.60000000  2.000000e-03
  0.20000000  0.80000000  0.80000000  2.000000e-03
  0.20000000  0.90000000  0.00000000  2.000000e-03
  0.20000000  0.90000000  0.20000000  2.000000e-03
  0.20000000  0.90000000  0.40000000  2.000000e-03
  0.20000000  0.90000000  0.60000000  2.000000e-03
  0.20000000  0.90000000  0.80000000  2.000000e-03
  0.30000000  0.00000000  0.00000000  2.000000e-03
  0.30000000  0.00000000  0.20000000  2.000000e-03
  0.30000000  0.00000000  0.40000000  2.000000e-03
  0.30000000  0.00000000  0.60000000  2.000000e-03
  0.30000000  0.00000000  0.80000000  2.000000e-03
  0.30000000  0.10000000  0.00000000  2.000000e-03
  0.30000000  0.10000000  0.20000000  2.000000e-03
  0.30000000  0.10000000  0.40000000  2.000000e-03
  0.30000000  0.10000000  0.60000000  2.000000e-03
  0.30000000  0.10000000  0.80000000  2.000000e-03
  0.30000000  0.20000000  0.00000000  2.000000e-03
  0.30000000  0.20000000  0.20000000  2.000000e-03
  0.30000000  0.20000000  0.40000000  2.000000e-03
  0.30000000  0.20000000  0.60000000  2.000000e-03
  0.30000000  0.20000000  0.80000000  2.000000e-03
  0.30000000  0.30000000  0.00000000  2.000000e-03
  0.30000000  0.30000000  0.20000000  2.000000e-03
  0.30000000  0.30000000  0.40000000  2.000000e-03
  0.30000000  0.30000000  0.60000000  2.000000e-03
  0.30000000  0.30000000  0.80000000  2.000000e-03
  0.30000000  0.40000000  0.00000000  2.000000e-03
  0.30000000  0.40000000  0.20000000  2.000000e-03
  0.30000000  0.40000000  0.40000000  2.000000e-03
  0.30000000  0.40000000  0.60000000  2.000000e-03
  0.30000000  0.40000000  0.80000000  2.000000e-03
  0.30000000  0.50000000  0.00000000  2.000000e-03
  0.30000000  0.50000000  0.20000000  2.000000e-03
  0.30000000  0.50000000  0.40000000  2.000000e-03
  0.30000000  0.50000000  0.60000000  2.000000e-03
  0.30000000  0.50000000  0.80000000  2.000000e-03
  0.30000000  0.60000000  0.00000000  2.000000e-03
  0.30000000  0.60000000  0.20000000  2.000000e-03
  0.30000000  0.60000000  0.40000000  2.000000e-03
  0.30000000  0.60000000  0.60000000  2.000000e-03
  0.30000000  0.60000000  0.80000000  2.000000e-03
  0.30000000  0.70000000  0.00000000  2.000000e-03
  0.30000000  0.70000000  0.20000000  2.000000e-03
  0.30000000  0.70000000  0.40000000  2.000000e-03
  0.30000000  0.70000000  0.60000000  2.000000e-03
  0.30000000  0.70000000  0.80000000  2.000000e-03
  0.30000000  0.80000000  0.00000000  2.000000e-03
  0.30000000  0.80000000  0.20000000  2.000000e-03
  0.30000000  0.80000000  0.40000000  2.000000e-03
  0.30000000  0.80000000  0.60000000  2.000000e-03
  0.30000000  0.80000000  0.80000000  2.000000e-03
  0.30000000  0.90000000  0.00000000  2.000000e-03
  0.30000000  0.90000000  0.20000000  2.000000e-03
  0.30000000  0.90000000  0.40000000  2.000000e-03
  0.30000000  0.90000000  0.60000000  2.000000e-03
  0.30000000  0.90000000  0.80000000  2.000000e-03
  0.40000000  0.00000000  0.00000000  2.000000e-03
  0.40000000  0.00000000  0.20000000  2.000000e-03
  0.40000000  0.00000000  0.40000000  2.000000e-03
  0.40000000  0.00000000  0.60000000  2.000000e-03
  0.40000000  0.00000000  0.80000000  2.000000e-03
  0.40000000  0.10000000  0.00000000  2.000000e-03
  0.40000000  0.10000000  0.20000000  2.000000e-03
  0.40000000  0.10000000  0.40000000  2.000000e-03
  0.40000000  0.10000000  0.60000000  2.000000e-03
  0.40000000  0.10000000  0.80000000  2.000000e-03
  0.40000000  0.20000000  0.00000000  2.000000e-03
  0.40000000  0.20000000  0.20000000  2.000000e-03
  0.40000000  0.20000000  0.40000000  2.000000e-03
  0.40000000  0.20000000  0.60000000  2.000000e-03
  0.40000000  0.20000000  0.80000000  2.000000e-03
  0.40000000  0.30000000  0.00000000  2.000000e-03
  0.40000000  0.30000000  0.20000000  2.000000e-03
  0.40000000  0.30000000  0.40000000  2.000000e-03
  0.40000000  0.30000000  0.60000000  2.000000e-03
  0.40000000  0.30000000  0.80000000  2.000000e-03
  0.40000000  0.40000000  0.00000000  2.000000e-03
  0.40000000  0.40000000  0.20000000  2.000000e-03
  0.40000000  0.40000000  0.40000000  2.000000e-03
  0.40000000  0.40000000  0.60000000  2.000000e-03
  0.40000000  0.40000000  0.80000000  2.000000e-03
  0.40000000  0.50000000  0.00000000  2.000000e-03
  0.40000000  0.50000000  0.20000000  2.000000e-03
  0.40000000  0.50000000  0.40000000  2.000000e-03
  0.40000000  0.50000000  0.60000000  2.000000e-03
  0.40000000  0.50000000  0.80000000  2.000000e-03
  0.40000000  0.60000000  0.00000000  2.000000e-03
  0.40000000  0.60000000  0.20000000  2.000000e-03
  0.40000000  0.60000000  0.40000000  2.000000e-03
  0.40000000  0.60000000  0.60000000  2.000000e-03
  0.40000000  0.60000000  0.80000000  2.000000e-03
  0.40000000  0.70000000  0.00000000  2.000000e-03
  0.40000000  0.70000000  0.20000000  2.000000e-03
  0.40000000  0.70000000  0.40000000  2.000000e-03
  0.40000000  0.70000000  0.60000000  2.000000e-03
  0.40000000  0.70000000  0.80000000  2.000000e-03
  0.40000000  0.80000000  0.00000000  2.000000e-03
  0.40000000  0.80000000  0.20000000  2.000000e-03
  0.40000000  0.80000000  0.40000000  2.000000e-03
  0.40000000  0.80000000  0.60000000  2.000000e-03
  0.40000000  0.80000000  0.80000000  2.000000e-03
  0.40000000  0.90000000  0.00000000  2.000000e-03
  0.40000000  0.90000000  0.20000000  2.000000e-03
  0.40000000  0.90000000  0.40000000  2.000000e-03
  0.40000000  0.90000000  0.60000000  2.000000e-03
  0.40000000  0.90000000  0.80000000  2.000000e-03
  0.50000000  0.00000000  0.00000000  2.000000e-03
  0.50000000  0.00000000  0.20000000  2.000000e-03
  0.50000000  0.00000000  0.40000000  2.000000e-03
  0.50000000  0.00000000  0.60000000  2.000000e-03
  0.50000000  0.00000000  0.80000000  2.000000e-03
  0.50000000  0.10000000  0.00000000  2.000000e-03
  0.50000000  0.10000000  0.20000000  2.000000e-03
  0.50000000  0.10000000  0.40000000  2.000000e-03
  0.50000000  0.10000000  0.60000000  2.000000e-03
  0.50000000  0.10000000  0.80000000  2.000000e-03
  0.50000000  0.20000000  0.00000000  2.000000e-03
  0.50000000  0.20000000  0.20000000  2.000000e-03
  0.50000000  0.20000000  0.40000000  2.000000e-03
  0.50000000  0.20000000  0.60000000  2.000000e-03
  0.50000000  0.20000000  0.80000000  2.000000e-03
  0.50000000  0.30000000  0.00000000  2.000000e-03
  0.50000000  0.30000000  0.20000000  2.000000e-03
  0.50000000  0.30000000  0.40000000  2.000000e-03
  0.50000000  0.30000000  0.60000000  2.000000e-03
  0.50000000  0.30000000  0.80000000  2.000000e-03
  0.50000000  0.40000000  0.00000000  2.000000e-03
  0.50000000  0.40000000  0.20000000  2.000000e-03
  0.50000000  0.40000000  0.40000000  2.000000e-03
  0.50000000  0.40000000  0.60000000  2.000000e-03
  0.50000000  0.40000000  0.80000000  2.000000e-03
  0.50000000  0.50000000  0.00000000  2.000000e-03
  0.50000000  0.50000000  0.20000000  2.000000e-03
  0.50000000  0.50000000  0.40000000  2.000000e-03
  0.50000000  0.50000000  0.60000000  2.000000e-03
  0.50000000  0.50000000  0.80000000  2.000000e-03
  0.50000000  0.60000000  0.00000000  2.000000e-03
  0.50000000  0.60000000  0.20000000  2.000000e-03
  0.50000000  0.60000000  0.40000000  2.000000e-03
  0.50000000  0.60000000  0.60000000  2.000000e-03
  0.50000000  0.60000000  0.80000000  2.000000e-03
  0.50000000  0.70000000  0.00000000  2.000000e-03
  0.50000000  0.70000000  0.20000000  2.000000e-03
  0.50000000  0.70000000  0.40000000  2.000000e-03
  0.50000000  0.70000000  0.60000000  2.000000e-03
  0.50000000  0.70000000  0.80000000  2.000000e-03
  0.50000000  0.80000000  0.00000000  2.000000e-03
  0.50000000  0.80000000  0.20000000  2.000000e-03
  0.50000000  0.80000000  0.40000000  2.000000e-03
  0.50000000  0.80000000  0.60000000  2.000000e-03
  0.50000000  0.80000000  0.80000000  2.000000e-03
  0.50000000  0.90000000  0.00000000  2.000000e-03
  0.50000000  0.90000000  0.20000000  2.000000e-03
  0.50000000  0.90000000  0.40000000  2.000000e-03
  0.50000000  0.90000000  0.60000000  2.000000e-03
  0.50000000  0.90000000  0.80000000  2.000000e-03
  0.60000000  0.00000000  0.00000000  2.000000e-03
  0.60000000  0.00000000  0.20000000  2.000000e-03
  0.60000000  0.00000000  0.40000000  2.000000e-03
  0.60000000  0.00000000  0.60000000  2.000000e-03
  0.60000000  0.00000000  0.80000000  2.000000e-03
  0.60000000  0.10000000  0.00000000  2.000000e-03
  0.60000000  0.10000000  0.20000000  2.000000e-03
  0.60000000  0.10000000  0.40000000  2.000000e-03
  0.60000000  0.10000000  0.60000000  2.000000e-03
  0.60000000  0.10000000  0.80000000  2.000000e-03
  0.60000000  0.20000000  0.00000000  2.000000e-03
  0.60000000  0.20000000  0.20000000  2.000000e-03
  0.60000000  0.20000000  0.40000000  2.000000e-03
  0.60000000  0.20000000  0.60000000  2.000000e-03
  0.60000000  0.20000000  0.80000000  2.000000e-03
  0.60000000  0.30000000  0.00000000  2.000000e-03
  0.60000000  0.30000000  0.20000000  2.000000e-03
  0.60000000  0.30000000  0.40000000  2.000000e-03
  0.60000000  0.30000000  0.60000000  2.000000e-03
  0.60000000  0.30000000  0.80000000  2.000000e-03
  0.60000000  0.40000000  0.00000000  2.000000e-03
  0.60000000  0.40000000  0.20000000  2.000000e-03
  0.60000000  0.40000000  0.40000000  2.000000e-03
  0.60000000  0.40000000  0.60000000  2.000000e-03
  0.60000000  0.40000000  0.80000000  2.000000e-03
  0.60000000  0.50000000  0.00000000  2.000000e-03
  0.60000000  0.50000000  0.20000000  2.000000e-03
  0.60000000  0.50000000  0.40000000  2.000000e-03
  0.60000000  0.50000000  0.60000000  2.000000e-03
  0.60000000  0.50000000  0.80000000  2.000000e-03
  0.60000000  0.60000000  0.00000000  2.000000e-03
  0.60000000  0.60000000  0.20000000  2.000000e-03
  0.60000000  0.60000000  0.40000000  2.000000e-03
  0.60000000  0.60000000  0.60000000  2.000000e-03
  0.60000000  0.60000000  0.80000000  2.000000e-03
  0.60000000  0.70000000  0.00000000  2.000000e-03
  0.60000000  0.70000000  0.20000000  2.000000e-03
  0.60000000  0.70000000  0.40000000  2.000000e-03
  0.60000000  0.70000000  0.60000000  2.000000e-03
  0.60000000  0.70000000  0.80000000  2.000000e-03
  0.60000000  0.80000000  0.00000000  2.000000e-03
  0.60000000  0.80000000  0.20000000  2.000000e-03
  0.60000000  0.80000000  0.40000000  2.000000e-03
  0.60000000  0.80000000  0.60000000  2.000000e-03
  0.60000000  0.80000000  0.80000000  2.000000e-03
  0.60000000  0.90000000  0.00000000  2.000000e-03
  0.60000000  0.90000000  0.20000000  2.000000e-03
  0.60000000  0.90000000  0.40000000  2.000000e-03
  0.60000000  0.90000000  0.60000000  2.000000e-03
  0.60000000  0.90000000  0.80000000  2.000000e-03
  0.70000000  0.00000000  0.00000000  2.000000e-03
  0.70000000  0.00000000  0.20000000  2.000000e-03
  0.70000000  0.00000000  0.40000000  2.000000e-03
  0.70000000  0.00000000  0.60000000  2.000000e-03
  0.70000000  0.00000000  0.80000000  2.000000e-03
  0.70000000  0.10000000  0.00000000  2.000000e-03
  0.70000000  0.10000000  0.20000000  2.000000e-03
  0.70000000  0.10000000  0.40000000  2.000000e-03
  0.70000000  0.10000000  0.60000000  2.000000e-03
  0.70000000  0.10000000  0.80000000  2.000000e-03
  0.70000000  0.20000000  0.00000000  2.000000e-03
  0.70000000  0.20000000  0.20000000  2.000000e-03
  0.70000000  0.20000000  0.40000000  2.000000e-03
  0.70000000  0.20000000  0.60000000  2.000000e-03
  0.70000000  0.20000000  0.80000000  2.000000e-03
  0.70000000  0.30000000  0.00000000  2.000000e-03
  0.70000000  0.30000000  0.20000000  2.000000e-03
  0.70000000  0.30000000  0.40000000  2.000000e-03
  0.70000000  0.30000000  0.60000000  2.000000e-03
  0.70000000  0.30000000  0.80000000  2.000000e-03
  0.70000000  0.40000000  0.00000000  2.000000e-03
  0.70000000  0.40000000  0.20000000  2.000000e-03
  0.70000000  0.40000000  0.40000000  2.000000e-03
  0.70000000  0.40000000  0.60000000  2.000000e-03
  0.70000000  0.40000000  0.80000000  2.000000e-03
  0.70000000  0.50000000  0.00000000  2.000000e-03
  0.70000000  0.50000000  0.20000000  2.000000e-03
  0.70000000  0.50000000  0.40000000  2.000000e-03
  0.70000000  0.50000000  0.60000000  2.000000e-03
  0.70000000  0.50000000  0.80000000  2.000000e-03
  0.70000000  0.60000000  0.00000000  2.000000e-03
  0.70000000  0.60000000  0.20000000  2.000000e-03
  0.70000000  0.60000000  0.40000000  2.000000e-03
  0.70000000  0.60000000  0.60000000  2.000000e-03
  0.70000000  0.60000000  0.80000000  2.000000e-03
  0.70000000  0.70000000  0.00000000  2.000000e-03
  0.70000000  0.70000000  0.20000000  2.000000e-03
  0.70000000  0.70000000  0.40000000  2.000000e-03
  0.70000000  0.70000000  0.60000000  2.000000e-03
  0.70000000  0.70000000  0.80000000  2.000000e-03
  0.70000000  0.80000000  0.00000000  2.000000e-03
  0.70000000  0.80000000  0.20000000  2.000000e-03
  0.70000000  0.80000000  0.40000000  2.000000e-03
  0.70000000  0.80000000  0.60000000  2.000000e-03
  0.70000000  0.80000000  0.80000000  2.000000e-03
  0.70000000  0.90000000  0.00000000  2.000000e-03
  0.70000000  0.90000000  0.20000000  2.000000e-03
  0.70000000  0.90000000  0.40000000  2.000000e-03
  0.70000000  0.90000000  0.60000000  2.000000e-03
  0.70000000  0.90000000  0.80000000  2.000000e-03
  0.80000000  0.00000000  0.00000000  2.000000e-03
  0.80000000  0.00000000  0.20000000  2.000000e-03
  0.80000000  0.00000000  0.40000000  2.000000e-03
  0.80000000  0.00000000  0.60000000  2.000000e-03
  0.80000000  0.00000000  0.80000000  2.000000e-03
  0.80000000  0.10000000  0.00000000  2.000000e-03
  0.80000000  0.10000000  0.20000000  2.000000e-03
  0.80000000  0.10000000  0.40000000  2.000000e-03
  0.80000000  0.10000000  0.60000000  2.000000e-03
  0.80000000  0.10000000  0.80000000  2.000000e-03
  0.80000000  0.20000000  0.00000000  2.000000e-03
  0.80000000  0.20000000  0.20000000  2.000000e-03
  0.80000000  0.20000000  0.40000000  2.000000e-03
  0.80000000  0.20000000  0.60000000  2.000000e-03
  0.80000000  0.20000000  0.80000000  2.000000e-03
  0.80000000  0.30000000  0.00000000  2.000000e-03
  0.80000000  0.30000000  0.20000000  2.000000e-03
  0.80000000  0.30000000  0.40000000  2.000000e-03
  0.80000000  0.30000000  0.60000000  2.000000e-03
  0.80000000  0.30000000  0.80000000  2.000000e-03
  0.80000000  0.40000000  0.00000000  2.000000e-03
  0.80000000  0.40000000  0.20000000  2.000000e-03
  0.80000000  0.40000000  0.40000000  2.000000e-03
  0.80000000  0.40000000  0.60000000  2.000000e-03
  0.80000000  0.40000000  0.80000000  2.000000e-03
  0.80000000  0.50000000  0.00000000  2.000000e-03
  0.80000000  0.50000000  0.20000000  2.000000e-03
  0.80000000  0.50000000  0.40000000  2.000000e-03
  0.80000000  0.50000000  0.60000000  2.000000e-03
  0.80000000  0.50000000  0.80000000  2.000000e-03
  0.80000000  0.60000000  0.00000000  2.000000e-03
  0.80000000  0.60000000  0.20000000  2.000000e-03
  0.80000000  0.60000000  0.40000000  2.000000e-03
  0.80000000  0.60000000  0.60000000  2.000000e-03
  0.80000000  0.60000000  0.80000000  2.000000e-03
  0.80000000  0.70000000  0.00000000  2.000000e-03
  0.80000000  0.70000000  0.20000000  2.000000e-03
  0.80000000  0.70000000  0.40000000  2.000000e-03
  0.80000000  0.70000000  0.60000000  2.000000e-03
  0.80000000  0.70000000  0.80000000  2.000000e-03
  0.80000000  0.80000000  0.00000000  2.000000e-03
  0.80000000  0.80000000  0.20000000  2.000000e-03
  0.80000000  0.80000000  0.40000000  2.000000e-03
  0.80000000  0.80000000  0.60000000  2.000000e-03
  0.80000000  0.80000000  0.80000000  2.000000e-03
  0.80000000  0.90000000  0.00000000  2.000000e-03
  0.80000000  0.90000000  0.20000000  2.000000e-03
  0.80000000  0.90000000  0.40000000  2.000000e-03
  0.80000000  0.90000000  0.60000000  2.000000e-03
  0.80000000  0.90000000  0.80000000  2.000000e-03
  0.90000000  0.00000000  0.00000000  2.000000e-03
  0.90000000  0.00000000  0.20000000  2.000000e-03
  0.90000000  0.00000000  0.40000000  2.000000e-03
  0.90000000  0.00000000  0.60000000  2.000000e-03
  0.90000000  0.00000000  0.80000000  2.000000e-03
  0.90000000  0.10000000  0.00000000  2.000000e-03
  0.90000000  0.10000000  0.20000000  2.000000e-03
  0.90000000  0.10000000  0.40000000  2.000000e-03
  0.90000000  0.10000000  0.60000000  2.000000e-03
  0.90000000  0.10000000  0.80000000  2.000000e-03
  0.90000000  0.20000000  0.00000000  2.000000e-03
  0.90000000  0.20000000  0.20000000  2.000000e-03
  0.90000000  0.20000000  0.40000000  2.000000e-03
  0.90000000  0.20000000  0.60000000  2.000000e-03
  0.90000000  0.20000000  0.80000000  2.000000e-03
  0.90000000  0.30000000  0.00000000  2.000000e-03
  0.90000000  0.30000000  0.20000000  2.000000e-03
  0.90000000  0.30000000  0.40000000  2.000000e-03
  0.90000000  0.30000000  0.60000000  2.000000e-03
  0.90000000  0.30000000  0.80000000  2.000000e-03
  0.90000000  0.40000000  0.00000000  2.000000e-03
  0.90000000  0.40000000  0.20000000  2.000000e-03
  0.90000000  0.40000000  0.40000000  2.000000e-03
  0.90000000  0.40000000  0.60000000  2.000000e-03
  0.90000000  0.40000000  0.80000000  2.000000e-03
  0.90000000  0.50000000  0.00000000  2.000000e-03
  0.90000000  0.50000000  0.20000000  2.000000e-03
  0.90000000  0.50000000  0.40000000  2.000000e-03
  0.90000000  0.50000000  0.60000000  2.000000e-03
  0.90000000  0.50000000  0.80000000  2.000000e-03
  0.90000000  0.60000000  0.00000000  2.000000e-03
  0.90000000  0.60000000  0.20000000  2.000000e-03
  0.90000000  0.60000000  0.40000000  2.000000e-03
  0.90000000  0.60000000  0.60000000  2.000000e-03
  0.90000000  0.60000000  0.80000000  2.000000e-03
  0.90000000  0.70000000  0.00000000  2.000000e-03
  0.90000000  0.70000000  0.20000000  2.000000e-03
  0.90000000  0.70000000  0.40000000  2.000000e-03
  0.90000000  0.70000000  0.60000000  2.000000e-03
  0.90000000  0.70000000  0.80000000  2.000000e-03
  0.90000000  0.80000000  0.00000000  2.000000e-03
  0.90000000  0.80000000  0.20000000  2.000000e-03
  0.90000000  0.80000000  0.40000000  2.000000e-03
  0.90000000  0.80000000  0.60000000  2.000000e-03
  0.90000000  0.80000000  0.80000000  2.000000e-03
  0.90000000  0.90000000  0.00000000  2.000000e-03
  0.90000000  0.90000000  0.20000000  2.000000e-03
  0.90000000  0.90000000  0.40000000  2.000000e-03
  0.90000000  0.90000000  0.60000000  2.000000e-03
  0.90000000  0.90000000  0.80000000  2.000000e-03
CELL_PARAMETERS angstrom
      3.3564380000      -0.0000000000      -0.0000000000
      0.0000000000       3.3564380000       0.0000000000
     -1.6782190000      -1.6782190000       5.7182250000