&CONTROL
  calculation 	= 'scf'
  etot_conv_thr =   4.0000000000d-05
  forc_conv_thr =   1.0000000000d-04
  outdir 	= './out/'
  prefix 	= 'NbP.supercell'
  pseudo_dir 	= './pseudo/'
!  tprnfor 	= .true.
!  tstress 	= .true.
  verbosity 	= 'high'
/
&SYSTEM
  degauss 	=  7.3498618000d-03
  ecutrho 	=  3.2000000000d+02
  ecutwfc 	=  4.0000000000d+01
  ibrav 	=  0
  nat 		=  16
  nosym 	=  .FALSE.
  ntyp 		=  2
  occupations 	=  'smearing'
  smearing 	=  'cold'
/
&ELECTRONS
  conv_thr	=  8.0000000000d-10
  electron_maxstep = 80
  mixing_beta 	=  4.0000000000d-01
/
ATOMIC_SPECIES
Nb     92.90638 Nb.pbesol-spn-kjpaw_psl.0.3.0.UPF
P      30.973761 P.pbesol-n-rrkjus_psl.1.0.0.UPF
ATOMIC_POSITIONS crystal
 Nb   0.2499615000000000  0.2499615000000000  0.3332820000000000   1   1   1
 Nb   0.7499614999999999  0.2499615000000000  0.3332820000000000   1   1   1
 Nb   0.2499615000000000  0.7499614999999999  0.3332820000000000   1   1   1
 Nb   0.7499614999999999  0.7499614999999999  0.3332820000000000   1   1   1
 Nb   0.3749615000000000  0.1249615000000000  0.1666153333333333   0   0   0
 Nb   0.8749614999999999  0.1249615000000000  0.1666153333333333   0   0   0
 Nb   0.3749615000000000  0.6249614999999999  0.1666153333333333   0   0   0
 Nb   0.8749614999999999  0.6249614999999999  0.1666153333333333   0   0   0
  P   0.4587235000000000  0.4587235000000000  0.2782980000000000   1   1   1
  P   0.9587235000000001  0.4587235000000000  0.2782980000000000   1   1   1
  P   0.4587235000000000  0.9587235000000001  0.2782980000000000   1   1   1
  P   0.9587235000000001  0.9587235000000001  0.2782980000000000   1   1   1
  P   0.0837235000000000  0.3337235000000000  0.1116313333333333   0   0   0
  P   0.5837235000000001  0.3337235000000000  0.1116313333333333   0   0   0
  P   0.0837235000000000  0.8337235000000001  0.1116313333333333   0   0   0
  P   0.5837235000000001  0.8337235000000001  0.1116313333333333   0   0   0
K_POINTS automatic
7 7 2 0 0 0
CELL_PARAMETERS bohr
   12.6854972319735761    0.0000000000000000    0.0000000000000000
    0.0000000000000000   12.6854972319735761    0.0000000000000000
   -9.5141229239801817   -9.5141229239801817   32.4176377200928982


