&CONTROL
  calculation 	= 'bands'
  etot_conv_thr =   4.0000000000d-05
  forc_conv_thr =   1.0000000000d-04
  outdir 	= './out/'
  restart_mode    = 'from_scratch' 
  prefix 	= 'NbP.supercell'
  pseudo_dir 	= './pseudo/'
!  tprnfor 	= .true.
!  tstress 	= .true.
  verbosity 	= 'high'
/
&SYSTEM
  degauss 	=  7.3498618000d-03
  ecutrho 	=  3.2000000000d+02
  ecutwfc 	=  4.0000000000d+01
  ibrav 	=  0
  nat 		=  16
  nosym 	=  .FALSE.
  ntyp 		=  2
  occupations 	=  'smearing'
  smearing 	=  'cold'
/
&ELECTRONS
  conv_thr	=  8.0000000000d-10
  electron_maxstep = 80
  mixing_beta 	=  4.0000000000d-01
/
ATOMIC_SPECIES
Nb     92.90638 Nb.pbesol-spn-kjpaw_psl.0.3.0.UPF
P      30.973761 P.pbesol-n-rrkjus_psl.1.0.0.UPF
ATOMIC_POSITIONS crystal
 Nb   0.2499615000000000  0.2499615000000000  0.3332820000000000   1   1   1
 Nb   0.7499614999999999  0.2499615000000000  0.3332820000000000   1   1   1
 Nb   0.2499615000000000  0.7499614999999999  0.3332820000000000   1   1   1
 Nb   0.7499614999999999  0.7499614999999999  0.3332820000000000   1   1   1
 Nb   0.3749615000000000  0.1249615000000000  0.1666153333333333   0   0   0
 Nb   0.8749614999999999  0.1249615000000000  0.1666153333333333   0   0   0
 Nb   0.3749615000000000  0.6249614999999999  0.1666153333333333   0   0   0
 Nb   0.8749614999999999  0.6249614999999999  0.1666153333333333   0   0   0
  P   0.4587235000000000  0.4587235000000000  0.2782980000000000   1   1   1
  P   0.9587235000000001  0.4587235000000000  0.2782980000000000   1   1   1
  P   0.4587235000000000  0.9587235000000001  0.2782980000000000   1   1   1
  P   0.9587235000000001  0.9587235000000001  0.2782980000000000   1   1   1
  P   0.0837235000000000  0.3337235000000000  0.1116313333333333   0   0   0
  P   0.5837235000000001  0.3337235000000000  0.1116313333333333   0   0   0
  P   0.0837235000000000  0.8337235000000001  0.1116313333333333   0   0   0
  P   0.5837235000000001  0.8337235000000001  0.1116313333333333   0   0   0
K_POINTS crystal
         400
        0.0000000000    0.0000000000    0.0000000000    1.0
        0.0000000000    0.0000000000    0.0098039216    1.0
        0.0000000000    0.0000000000    0.0196078431    1.0
        0.0000000000    0.0000000000    0.0294117647    1.0
        0.0000000000    0.0000000000    0.0392156863    1.0
        0.0000000000    0.0000000000    0.0490196078    1.0
        0.0000000000    0.0000000000    0.0588235294    1.0
        0.0000000000    0.0000000000    0.0686274510    1.0
        0.0000000000    0.0000000000    0.0784313725    1.0
        0.0000000000    0.0000000000    0.0882352941    1.0
        0.0000000000    0.0000000000    0.0980392157    1.0
        0.0000000000    0.0000000000    0.1078431373    1.0
        0.0000000000    0.0000000000    0.1176470588    1.0
        0.0000000000    0.0000000000    0.1274509804    1.0
        0.0000000000    0.0000000000    0.1372549020    1.0
        0.0000000000    0.0000000000    0.1470588235    1.0
        0.0000000000    0.0000000000    0.1568627451    1.0
        0.0000000000    0.0000000000    0.1666666667    1.0
        0.0000000000    0.0000000000    0.1764705882    1.0
        0.0000000000    0.0000000000    0.1862745098    1.0
        0.0000000000    0.0000000000    0.1960784314    1.0
        0.0000000000    0.0000000000    0.2058823529    1.0
        0.0000000000    0.0000000000    0.2156862745    1.0
        0.0000000000    0.0000000000    0.2254901961    1.0
        0.0000000000    0.0000000000    0.2352941176    1.0
        0.0000000000    0.0000000000    0.2450980392    1.0
        0.0000000000    0.0000000000    0.2549019608    1.0
        0.0000000000    0.0000000000    0.2647058824    1.0
        0.0000000000    0.0000000000    0.2745098039    1.0
        0.0000000000    0.0000000000    0.2843137255    1.0
        0.0000000000    0.0000000000    0.2941176471    1.0
        0.0000000000    0.0000000000    0.3039215686    1.0
        0.0000000000    0.0000000000    0.3137254902    1.0
        0.0000000000    0.0000000000    0.3235294118    1.0
        0.0000000000    0.0000000000    0.3333333333    1.0
        0.0000000000    0.0000000000    0.3431372549    1.0
        0.0000000000    0.0000000000    0.3529411765    1.0
        0.0000000000    0.0000000000    0.3627450980    1.0
        0.0000000000    0.0000000000    0.3725490196    1.0
        0.0000000000    0.0000000000    0.3823529412    1.0
        0.0000000000    0.0000000000    0.3921568627    1.0
        0.0000000000    0.0000000000    0.4019607843    1.0
        0.0000000000    0.0000000000    0.4117647059    1.0
        0.0000000000    0.0000000000    0.4215686275    1.0
        0.0000000000    0.0000000000    0.4313725490    1.0
        0.0000000000    0.0000000000    0.4411764706    1.0
        0.0000000000    0.0000000000    0.4509803922    1.0
        0.0000000000    0.0000000000    0.4607843137    1.0
        0.0000000000    0.0000000000    0.4705882353    1.0
        0.0000000000    0.0000000000    0.4803921569    1.0
        0.0000000000    0.0000000000    0.4901960784    1.0
        0.0000000000    0.0000000000    0.5000000000    1.0
        0.0057839241    0.0000000000    0.4971079747    1.0
        0.0115678481    0.0000000000    0.4942159494    1.0
        0.0173517722    0.0000000000    0.4913239241    1.0
        0.0231356962    0.0000000000    0.4884318987    1.0
        0.0289196203    0.0000000000    0.4855398734    1.0
        0.0347035443    0.0000000000    0.4826478481    1.0
        0.0404874684    0.0000000000    0.4797558228    1.0
        0.0462713924    0.0000000000    0.4768637975    1.0
        0.0520553165    0.0000000000    0.4739717722    1.0
        0.0578392405    0.0000000000    0.4710797468    1.0
        0.0636231646    0.0000000000    0.4681877215    1.0
        0.0694070886    0.0000000000    0.4652956962    1.0
        0.0751910127    0.0000000000    0.4624036709    1.0
        0.0809749367    0.0000000000    0.4595116456    1.0
        0.0867588608    0.0000000000    0.4566196203    1.0
        0.0925427848    0.0000000000    0.4537275949    1.0
        0.0983267089    0.0000000000    0.4508355696    1.0
        0.1041106329    0.0000000000    0.4479435443    1.0
        0.1098945570    0.0000000000    0.4450515190    1.0
        0.1156784810    0.0000000000    0.4421594937    1.0
        0.1214624051    0.0000000000    0.4392674684    1.0
        0.1272463291    0.0000000000    0.4363754430    1.0
        0.1330302532    0.0000000000    0.4334834177    1.0
        0.1388141772    0.0000000000    0.4305913924    1.0
        0.1445981013    0.0000000000    0.4276993671    1.0
        0.1503820253    0.0000000000    0.4248073418    1.0
        0.1561659494    0.0000000000    0.4219153165    1.0
        0.1619498734    0.0000000000    0.4190232911    1.0
        0.1677337975    0.0000000000    0.4161312658    1.0
        0.1735177215    0.0000000000    0.4132392405    1.0
        0.1793016456    0.0000000000    0.4103472152    1.0
        0.1850855696    0.0000000000    0.4074551899    1.0
        0.1908694937    0.0000000000    0.4045631646    1.0
        0.1966534177    0.0000000000    0.4016711392    1.0
        0.2024373418    0.0000000000    0.3987791139    1.0
        0.2082212658    0.0000000000    0.3958870886    1.0
        0.2140051899    0.0000000000    0.3929950633    1.0
        0.2197891139    0.0000000000    0.3901030380    1.0
        0.2255730380    0.0000000000    0.3872110127    1.0
        0.2313569620    0.0000000000    0.3843189873    1.0
        0.2371408861    0.0000000000    0.3814269620    1.0
        0.2429248101    0.0000000000    0.3785349367    1.0
        0.2487087342    0.0000000000    0.3756429114    1.0
        0.2544926582    0.0000000000    0.3727508861    1.0
        0.2602765823    0.0000000000    0.3698588608    1.0
        0.2660605063    0.0000000000    0.3669668354    1.0
        0.2718444304    0.0000000000    0.3640748101    1.0
        0.2776283544    0.0000000000    0.3611827848    1.0
        0.2834122785    0.0000000000    0.3582907595    1.0
        0.2891962025    0.0000000000    0.3553987342    1.0
        0.2949801266    0.0000000000    0.3525067089    1.0
        0.3007640506    0.0000000000    0.3496146835    1.0
        0.3065479747    0.0000000000    0.3467226582    1.0
        0.3123318987    0.0000000000    0.3438306329    1.0
        0.3181158228    0.0000000000    0.3409386076    1.0
        0.3238997468    0.0000000000    0.3380465823    1.0
        0.3296836709    0.0000000000    0.3351545570    1.0
        0.3354675949    0.0000000000    0.3322625316    1.0
        0.3412515190    0.0000000000    0.3293705063    1.0
        0.3470354430    0.0000000000    0.3264784810    1.0
        0.3528193671    0.0000000000    0.3235864557    1.0
        0.3586032911    0.0000000000    0.3206944304    1.0
        0.3643872152    0.0000000000    0.3178024051    1.0
        0.3701711392    0.0000000000    0.3149103797    1.0
        0.3759550633    0.0000000000    0.3120183544    1.0
        0.3817389873    0.0000000000    0.3091263291    1.0
        0.3875229114    0.0000000000    0.3062343038    1.0
        0.3933068354    0.0000000000    0.3033422785    1.0
        0.3990907595    0.0000000000    0.3004502532    1.0
        0.4048746835    0.0000000000    0.2975582278    1.0
        0.4106586076    0.0000000000    0.2946662025    1.0
        0.4164425316    0.0000000000    0.2917741772    1.0
        0.4222264557    0.0000000000    0.2888821519    1.0
        0.4280103797    0.0000000000    0.2859901266    1.0
        0.4337943038    0.0000000000    0.2830981013    1.0
        0.4395782278    0.0000000000    0.2802060759    1.0
        0.4453621519    0.0000000000    0.2773140506    1.0
        0.4511460759    0.0000000000    0.2744220253    1.0
        0.4569300000    0.0000000000    0.2715300000    1.0
        0.4585865385    0.0000000000    0.2610865385    1.0
        0.4602430769    0.0000000000    0.2506430769    1.0
        0.4618996154    0.0000000000    0.2401996154    1.0
        0.4635561538    0.0000000000    0.2297561538    1.0
        0.4652126923    0.0000000000    0.2193126923    1.0
        0.4668692308    0.0000000000    0.2088692308    1.0
        0.4685257692    0.0000000000    0.1984257692    1.0
        0.4701823077    0.0000000000    0.1879823077    1.0
        0.4718388462    0.0000000000    0.1775388462    1.0
        0.4734953846    0.0000000000    0.1670953846    1.0
        0.4751519231    0.0000000000    0.1566519231    1.0
        0.4768084615    0.0000000000    0.1462084615    1.0
        0.4784650000    0.0000000000    0.1357650000    1.0
        0.4801215385    0.0000000000    0.1253215385    1.0
        0.4817780769    0.0000000000    0.1148780769    1.0
        0.4834346154    0.0000000000    0.1044346154    1.0
        0.4850911538    0.0000000000    0.0939911538    1.0
        0.4867476923    0.0000000000    0.0835476923    1.0
        0.4884042308    0.0000000000    0.0731042308    1.0
        0.4900607692    0.0000000000    0.0626607692    1.0
        0.4917173077    0.0000000000    0.0522173077    1.0
        0.4933738462    0.0000000000    0.0417738462    1.0
        0.4950303846    0.0000000000    0.0313303846    1.0
        0.4966869231    0.0000000000    0.0208869231    1.0
        0.4983434615    0.0000000000    0.0104434615    1.0
        0.5000000000    0.0000000000    0.0000000000    1.0
        0.5016565385    0.0000000000   -0.0104434615    1.0
        0.5033130769    0.0000000000   -0.0208869231    1.0
        0.5049696154    0.0000000000   -0.0313303846    1.0
        0.5066261538    0.0000000000   -0.0417738462    1.0
        0.5082826923    0.0000000000   -0.0522173077    1.0
        0.5099392308    0.0000000000   -0.0626607692    1.0
        0.5115957692    0.0000000000   -0.0731042308    1.0
        0.5132523077    0.0000000000   -0.0835476923    1.0
        0.5149088462    0.0000000000   -0.0939911538    1.0
        0.5165653846    0.0000000000   -0.1044346154    1.0
        0.5182219231    0.0000000000   -0.1148780769    1.0
        0.5198784615    0.0000000000   -0.1253215385    1.0
        0.5215350000    0.0000000000   -0.1357650000    1.0
        0.5231915385    0.0000000000   -0.1462084615    1.0
        0.5248480769    0.0000000000   -0.1566519231    1.0
        0.5265046154    0.0000000000   -0.1670953846    1.0
        0.5281611538    0.0000000000   -0.1775388462    1.0
        0.5298176923    0.0000000000   -0.1879823077    1.0
        0.5314742308    0.0000000000   -0.1984257692    1.0
        0.5331307692    0.0000000000   -0.2088692308    1.0
        0.5347873077    0.0000000000   -0.2193126923    1.0
        0.5364438462    0.0000000000   -0.2297561538    1.0
        0.5381003846    0.0000000000   -0.2401996154    1.0
        0.5397569231    0.0000000000   -0.2506430769    1.0
        0.5414134615    0.0000000000   -0.2610865385    1.0
        0.5430700000    0.0000000000   -0.2715300000    1.0
        0.5421632632    0.0048097895   -0.2682184211    1.0
        0.5412565263    0.0096195789   -0.2649068421    1.0
        0.5403497895    0.0144293684   -0.2615952632    1.0
        0.5394430526    0.0192391579   -0.2582836842    1.0
        0.5385363158    0.0240489474   -0.2549721053    1.0
        0.5376295789    0.0288587368   -0.2516605263    1.0
        0.5367228421    0.0336685263   -0.2483489474    1.0
        0.5358161053    0.0384783158   -0.2450373684    1.0
        0.5349093684    0.0432881053   -0.2417257895    1.0
        0.5340026316    0.0480978947   -0.2384142105    1.0
        0.5330958947    0.0529076842   -0.2351026316    1.0
        0.5321891579    0.0577174737   -0.2317910526    1.0
        0.5312824211    0.0625272632   -0.2284794737    1.0
        0.5303756842    0.0673370526   -0.2251678947    1.0
        0.5294689474    0.0721468421   -0.2218563158    1.0
        0.5285622105    0.0769566316   -0.2185447368    1.0
        0.5276554737    0.0817664211   -0.2152331579    1.0
        0.5267487368    0.0865762105   -0.2119215789    1.0
        0.5258420000    0.0913860000   -0.2086100000    1.0
        0.5249352632    0.0961957895   -0.2052984211    1.0
        0.5240285263    0.1010055789   -0.2019868421    1.0
        0.5231217895    0.1058153684   -0.1986752632    1.0
        0.5222150526    0.1106251579   -0.1953636842    1.0
        0.5213083158    0.1154349474   -0.1920521053    1.0
        0.5204015789    0.1202447368   -0.1887405263    1.0
        0.5194948421    0.1250545263   -0.1854289474    1.0
        0.5185881053    0.1298643158   -0.1821173684    1.0
        0.5176813684    0.1346741053   -0.1788057895    1.0
        0.5167746316    0.1394838947   -0.1754942105    1.0
        0.5158678947    0.1442936842   -0.1721826316    1.0
        0.5149611579    0.1491034737   -0.1688710526    1.0
        0.5140544211    0.1539132632   -0.1655594737    1.0
        0.5131476842    0.1587230526   -0.1622478947    1.0
        0.5122409474    0.1635328421   -0.1589363158    1.0
        0.5113342105    0.1683426316   -0.1556247368    1.0
        0.5104274737    0.1731524211   -0.1523131579    1.0
        0.5095207368    0.1779622105   -0.1490015789    1.0
        0.5086140000    0.1827720000   -0.1456900000    1.0
        0.5077072632    0.1875817895   -0.1423784211    1.0
        0.5068005263    0.1923915789   -0.1390668421    1.0
        0.5058937895    0.1972013684   -0.1357552632    1.0
        0.5049870526    0.2020111579   -0.1324436842    1.0
        0.5040803158    0.2068209474   -0.1291321053    1.0
        0.5031735789    0.2116307368   -0.1258205263    1.0
        0.5022668421    0.2164405263   -0.1225089474    1.0
        0.5013601053    0.2212503158   -0.1191973684    1.0
        0.5004533684    0.2260601053   -0.1158857895    1.0
        0.4995466316    0.2308698947   -0.1125742105    1.0
        0.4986398947    0.2356796842   -0.1092626316    1.0
        0.4977331579    0.2404894737   -0.1059510526    1.0
        0.4968264211    0.2452992632   -0.1026394737    1.0
        0.4959196842    0.2501090526   -0.0993278947    1.0
        0.4950129474    0.2549188421   -0.0960163158    1.0
        0.4941062105    0.2597286316   -0.0927047368    1.0
        0.4931994737    0.2645384211   -0.0893931579    1.0
        0.4922927368    0.2693482105   -0.0860815789    1.0
        0.4913860000    0.2741580000   -0.0827700000    1.0
        0.4904792632    0.2789677895   -0.0794584211    1.0
        0.4895725263    0.2837775789   -0.0761468421    1.0
        0.4886657895    0.2885873684   -0.0728352632    1.0
        0.4877590526    0.2933971579   -0.0695236842    1.0
        0.4868523158    0.2982069474   -0.0662121053    1.0
        0.4859455789    0.3030167368   -0.0629005263    1.0
        0.4850388421    0.3078265263   -0.0595889474    1.0
        0.4841321053    0.3126363158   -0.0562773684    1.0
        0.4832253684    0.3174461053   -0.0529657895    1.0
        0.4823186316    0.3222558947   -0.0496542105    1.0
        0.4814118947    0.3270656842   -0.0463426316    1.0
        0.4805051579    0.3318754737   -0.0430310526    1.0
        0.4795984211    0.3366852632   -0.0397194737    1.0
        0.4786916842    0.3414950526   -0.0364078947    1.0
        0.4777849474    0.3463048421   -0.0330963158    1.0
        0.4768782105    0.3511146316   -0.0297847368    1.0
        0.4759714737    0.3559244211   -0.0264731579    1.0
        0.4750647368    0.3607342105   -0.0231615789    1.0
        0.4741580000    0.3655440000   -0.0198500000    1.0
        0.4732512632    0.3703537895   -0.0165384211    1.0
        0.4723445263    0.3751635789   -0.0132268421    1.0
        0.4714377895    0.3799733684   -0.0099152632    1.0
        0.4705310526    0.3847831579   -0.0066036842    1.0
        0.4696243158    0.3895929474   -0.0032921053    1.0
        0.4687175789    0.3944027368    0.0000194737    1.0
        0.4678108421    0.3992125263    0.0033310526    1.0
        0.4669041053    0.4040223158    0.0066426316    1.0
        0.4659973684    0.4088321053    0.0099542105    1.0
        0.4650906316    0.4136418947    0.0132657895    1.0
        0.4641838947    0.4184516842    0.0165773684    1.0
        0.4632771579    0.4232614737    0.0198889474    1.0
        0.4623704211    0.4280712632    0.0232005263    1.0
        0.4614636842    0.4328810526    0.0265121053    1.0
        0.4605569474    0.4376908421    0.0298236842    1.0
        0.4596502105    0.4425006316    0.0331352632    1.0
        0.4587434737    0.4473104211    0.0364468421    1.0
        0.4578367368    0.4521202105    0.0397584211    1.0
        0.4569300000    0.4569300000    0.0430700000    1.0
        0.4531846721    0.4531846721    0.0427169672    1.0
        0.4494393443    0.4494393443    0.0423639344    1.0
        0.4456940164    0.4456940164    0.0420109016    1.0
        0.4419486885    0.4419486885    0.0416578689    1.0
        0.4382033607    0.4382033607    0.0413048361    1.0
        0.4344580328    0.4344580328    0.0409518033    1.0
        0.4307127049    0.4307127049    0.0405987705    1.0
        0.4269673770    0.4269673770    0.0402457377    1.0
        0.4232220492    0.4232220492    0.0398927049    1.0
        0.4194767213    0.4194767213    0.0395396721    1.0
        0.4157313934    0.4157313934    0.0391866393    1.0
        0.4119860656    0.4119860656    0.0388336066    1.0
        0.4082407377    0.4082407377    0.0384805738    1.0
        0.4044954098    0.4044954098    0.0381275410    1.0
        0.4007500820    0.4007500820    0.0377745082    1.0
        0.3970047541    0.3970047541    0.0374214754    1.0
        0.3932594262    0.3932594262    0.0370684426    1.0
        0.3895140984    0.3895140984    0.0367154098    1.0
        0.3857687705    0.3857687705    0.0363623770    1.0
        0.3820234426    0.3820234426    0.0360093443    1.0
        0.3782781148    0.3782781148    0.0356563115    1.0
        0.3745327869    0.3745327869    0.0353032787    1.0
        0.3707874590    0.3707874590    0.0349502459    1.0
        0.3670421311    0.3670421311    0.0345972131    1.0
        0.3632968033    0.3632968033    0.0342441803    1.0
        0.3595514754    0.3595514754    0.0338911475    1.0
        0.3558061475    0.3558061475    0.0335381148    1.0
        0.3520608197    0.3520608197    0.0331850820    1.0
        0.3483154918    0.3483154918    0.0328320492    1.0
        0.3445701639    0.3445701639    0.0324790164    1.0
        0.3408248361    0.3408248361    0.0321259836    1.0
        0.3370795082    0.3370795082    0.0317729508    1.0
        0.3333341803    0.3333341803    0.0314199180    1.0
        0.3295888525    0.3295888525    0.0310668852    1.0
        0.3258435246    0.3258435246    0.0307138525    1.0
        0.3220981967    0.3220981967    0.0303608197    1.0
        0.3183528689    0.3183528689    0.0300077869    1.0
        0.3146075410    0.3146075410    0.0296547541    1.0
        0.3108622131    0.3108622131    0.0293017213    1.0
        0.3071168852    0.3071168852    0.0289486885    1.0
        0.3033715574    0.3033715574    0.0285956557    1.0
        0.2996262295    0.2996262295    0.0282426230    1.0
        0.2958809016    0.2958809016    0.0278895902    1.0
        0.2921355738    0.2921355738    0.0275365574    1.0
        0.2883902459    0.2883902459    0.0271835246    1.0
        0.2846449180    0.2846449180    0.0268304918    1.0
        0.2808995902    0.2808995902    0.0264774590    1.0
        0.2771542623    0.2771542623    0.0261244262    1.0
        0.2734089344    0.2734089344    0.0257713934    1.0
        0.2696636066    0.2696636066    0.0254183607    1.0
        0.2659182787    0.2659182787    0.0250653279    1.0
        0.2621729508    0.2621729508    0.0247122951    1.0
        0.2584276230    0.2584276230    0.0243592623    1.0
        0.2546822951    0.2546822951    0.0240062295    1.0
        0.2509369672    0.2509369672    0.0236531967    1.0
        0.2471916393    0.2471916393    0.0233001639    1.0
        0.2434463115    0.2434463115    0.0229471311    1.0
        0.2397009836    0.2397009836    0.0225940984    1.0
        0.2359556557    0.2359556557    0.0222410656    1.0
        0.2322103279    0.2322103279    0.0218880328    1.0
        0.2284650000    0.2284650000    0.0215350000    1.0
        0.2247196721    0.2247196721    0.0211819672    1.0
        0.2209743443    0.2209743443    0.0208289344    1.0
        0.2172290164    0.2172290164    0.0204759016    1.0
        0.2134836885    0.2134836885    0.0201228689    1.0
        0.2097383607    0.2097383607    0.0197698361    1.0
        0.2059930328    0.2059930328    0.0194168033    1.0
        0.2022477049    0.2022477049    0.0190637705    1.0
        0.1985023770    0.1985023770    0.0187107377    1.0
        0.1947570492    0.1947570492    0.0183577049    1.0
        0.1910117213    0.1910117213    0.0180046721    1.0
        0.1872663934    0.1872663934    0.0176516393    1.0
        0.1835210656    0.1835210656    0.0172986066    1.0
        0.1797757377    0.1797757377    0.0169455738    1.0
        0.1760304098    0.1760304098    0.0165925410    1.0
        0.1722850820    0.1722850820    0.0162395082    1.0
        0.1685397541    0.1685397541    0.0158864754    1.0
        0.1647944262    0.1647944262    0.0155334426    1.0
        0.1610490984    0.1610490984    0.0151804098    1.0
        0.1573037705    0.1573037705    0.0148273770    1.0
        0.1535584426    0.1535584426    0.0144743443    1.0
        0.1498131148    0.1498131148    0.0141213115    1.0
        0.1460677869    0.1460677869    0.0137682787    1.0
        0.1423224590    0.1423224590    0.0134152459    1.0
        0.1385771311    0.1385771311    0.0130622131    1.0
        0.1348318033    0.1348318033    0.0127091803    1.0
        0.1310864754    0.1310864754    0.0123561475    1.0
        0.1273411475    0.1273411475    0.0120031148    1.0
        0.1235958197    0.1235958197    0.0116500820    1.0
        0.1198504918    0.1198504918    0.0112970492    1.0
        0.1161051639    0.1161051639    0.0109440164    1.0
        0.1123598361    0.1123598361    0.0105909836    1.0
        0.1086145082    0.1086145082    0.0102379508    1.0
        0.1048691803    0.1048691803    0.0098849180    1.0
        0.1011238525    0.1011238525    0.0095318852    1.0
        0.0973785246    0.0973785246    0.0091788525    1.0
        0.0936331967    0.0936331967    0.0088258197    1.0
        0.0898878689    0.0898878689    0.0084727869    1.0
        0.0861425410    0.0861425410    0.0081197541    1.0
        0.0823972131    0.0823972131    0.0077667213    1.0
        0.0786518852    0.0786518852    0.0074136885    1.0
        0.0749065574    0.0749065574    0.0070606557    1.0
        0.0711612295    0.0711612295    0.0067076230    1.0
        0.0674159016    0.0674159016    0.0063545902    1.0
        0.0636705738    0.0636705738    0.0060015574    1.0
        0.0599252459    0.0599252459    0.0056485246    1.0
        0.0561799180    0.0561799180    0.0052954918    1.0
        0.0524345902    0.0524345902    0.0049424590    1.0
        0.0486892623    0.0486892623    0.0045894262    1.0
        0.0449439344    0.0449439344    0.0042363934    1.0
        0.0411986066    0.0411986066    0.0038833607    1.0
        0.0374532787    0.0374532787    0.0035303279    1.0
        0.0337079508    0.0337079508    0.0031772951    1.0
        0.0299626230    0.0299626230    0.0028242623    1.0
        0.0262172951    0.0262172951    0.0024712295    1.0
        0.0224719672    0.0224719672    0.0021181967    1.0
        0.0187266393    0.0187266393    0.0017651639    1.0
        0.0149813115    0.0149813115    0.0014121311    1.0
        0.0112359836    0.0112359836    0.0010590984    1.0
        0.0074906557    0.0074906557    0.0007060656    1.0
        0.0037453279    0.0037453279    0.0003530328    1.0
        0.0000000000    0.0000000000    0.0000000000    1.0
CELL_PARAMETERS bohr
   12.6854972319735761    0.0000000000000000    0.0000000000000000
    0.0000000000000000   12.6854972319735761    0.0000000000000000
   -9.5141229239801817   -9.5141229239801817   32.4176377200928982


