&BANDS
  prefix = 'NbP.supercell'
  outdir = './out/'
  filband = 'NbP_bands.dat'
/
