&BANDS
  prefix = 'NbP_bulk'
  outdir = './out/'
  filband = 'bands.scf.dat'
/