exclude_bands          = 1-20       !! Exclude bands 1 to 14 from the calculation
dis_froz_max           =   15       !! Maximum distance for the frozen window
dis_win_max            =   19       !! Maximum distance for the disentanglement window
num_wann               =   36       !! Number of Wannier centers to plot
use_ws_distance        = true       !! Use Wannier smoothing distance
num_iter               =  500       !! Number of iterations for Wannier localization
dis_num_iter           =  100       !! Number of iterations for disentanglement
wannier_plot 	       = true       !! Enable Wannier function plotting
wannier_plot_supercell =    3       !! Supercell size for Wannier function plotting
write_tb               = true       !! Write tight-binding Hamiltonian
iprint                 =    2       !! Print level for output messages
num_dump_cycles        =   10       !! Number of cycles between dumping restart files
num_print_cycles       =   10       !! Number of cycles between printing output messages
length_unit            =  Ang       !! Unit for length measurements (Angstroms)
bands_plot             = true       !! Calculate the Bandstructure, store in *.dat file

!! Empty lines for readability

!! Begin the definition of the unit cell in Cartesian coordinates (in Angstroms)
begin unit_cell_cart
 Ang
      3.3564380000      -0.0000000000      -0.0000000000
      0.0000000000       3.3564380000       0.0000000000
     -1.6782190000      -1.6782190000       5.7182250000
end unit_cell_cart

!! Empty lines for readability

!! Begin the definition of the atomic positions in fractional coordinates
begin atoms_frac
Nb           0.4999230000       0.4999230000       0.9998460000 
Nb           0.7499230000       0.2499230000       0.4998460000 
P            0.9174470000       0.9174470000       0.8348940000 
P            0.1674470000       0.6674470000       0.3348940000 
end atoms_frac

!! Empty lines for readability

!! Begin the definition of the k-point path for band structure calculation
begin kpoint_path
G 0.00000  0.00000 0.000000 X 0.00000  0.00000 0.5000
X 0.00000  0.00000 0.500000 M 0.45693  0.00000 0.27153
M 0.45693  0.00000 0.271500 Y 0.50000  0.00000 0.0000
Y 0.50000  0.00000 0.000000 K 0.54307  0.00000 -0.27153
K 0.54307  0.00000 -0.27153 F 0.45693  0.45693 0.0430
F 0.45693  0.45693 0.043000 G 0.00000  0.00000 0.0000
end kpoint_path

!! Empty lines for readability

begin projections
!! Atom-centred d and p-orbitals
  Nb : l=2   !! d-orbitals
  P  : s;p   !! sp-orbitals
end projections
spinors            = true
kpath              = true
kpath_task         = bands
kpath_bands_colour = spin
kpath_num_points   = 500


mp_grid  =  40 40 30 !! Monkhorst-Pack grid for k-point sampling

!! Begin the definition of the explicit k-points:
!! The kpoints have to be the same as the pw.x "nscf" points 
begin kpoints 
  0.00000000  0.00000000  0.00000000
  0.00000000  0.00000000  0.03333333
  0.00000000  0.00000000  0.06666667
  0.00000000  0.00000000  0.10000000
  0.00000000  0.00000000  0.13333333
  0.00000000  0.00000000  0.16666667
  0.00000000  0.00000000  0.20000000
  0.00000000  0.00000000  0.23333333
  0.00000000  0.00000000  0.26666667
  0.00000000  0.00000000  0.30000000
  0.00000000  0.00000000  0.33333333
  0.00000000  0.00000000  0.36666667
  0.00000000  0.00000000  0.40000000
  0.00000000  0.00000000  0.43333333
  0.00000000  0.00000000  0.46666667
  0.00000000  0.00000000  0.50000000
  0.00000000  0.00000000  0.53333333
  0.00000000  0.00000000  0.56666667
  0.00000000  0.00000000  0.60000000
  0.00000000  0.00000000  0.63333333
  0.00000000  0.00000000  0.66666667
  0.00000000  0.00000000  0.70000000
  0.00000000  0.00000000  0.73333333
  0.00000000  0.00000000  0.76666667
  0.00000000  0.00000000  0.80000000
  0.00000000  0.00000000  0.83333333
  0.00000000  0.00000000  0.86666667
  0.00000000  0.00000000  0.90000000
  0.00000000  0.00000000  0.93333333
  0.00000000  0.00000000  0.96666667
  0.00000000  0.02500000  0.00000000
  0.00000000  0.02500000  0.03333333
  0.00000000  0.02500000  0.06666667
  0.00000000  0.02500000  0.10000000
  0.00000000  0.02500000  0.13333333
  0.00000000  0.02500000  0.16666667
  0.00000000  0.02500000  0.20000000
  0.00000000  0.02500000  0.23333333
  0.00000000  0.02500000  0.26666667
  0.00000000  0.02500000  0.30000000
  0.00000000  0.02500000  0.33333333
  0.00000000  0.02500000  0.36666667
  0.00000000  0.02500000  0.40000000
  0.00000000  0.02500000  0.43333333
  0.00000000  0.02500000  0.46666667
  0.00000000  0.02500000  0.50000000
  0.00000000  0.02500000  0.53333333
  0.00000000  0.02500000  0.56666667
  0.00000000  0.02500000  0.60000000
  0.00000000  0.02500000  0.63333333
  0.00000000  0.02500000  0.66666667
  0.00000000  0.02500000  0.70000000
  0.00000000  0.02500000  0.73333333
  0.00000000  0.02500000  0.76666667
  0.00000000  0.02500000  0.80000000
  0.00000000  0.02500000  0.83333333
  0.00000000  0.02500000  0.86666667
  0.00000000  0.02500000  0.90000000
  0.00000000  0.02500000  0.93333333
  0.00000000  0.02500000  0.96666667
  0.00000000  0.05000000  0.00000000
  0.00000000  0.05000000  0.03333333
  0.00000000  0.05000000  0.06666667
  0.00000000  0.05000000  0.10000000
  0.00000000  0.05000000  0.13333333
  0.00000000  0.05000000  0.16666667
  0.00000000  0.05000000  0.20000000
  0.00000000  0.05000000  0.23333333
  0.00000000  0.05000000  0.26666667
  0.00000000  0.05000000  0.30000000
  0.00000000  0.05000000  0.33333333
  0.00000000  0.05000000  0.36666667
  0.00000000  0.05000000  0.40000000
  0.00000000  0.05000000  0.43333333
  0.00000000  0.05000000  0.46666667
  0.00000000  0.05000000  0.50000000
  0.00000000  0.05000000  0.53333333
  0.00000000  0.05000000  0.56666667
  0.00000000  0.05000000  0.60000000
  0.00000000  0.05000000  0.63333333
  0.00000000  0.05000000  0.66666667
  0.00000000  0.05000000  0.70000000
  0.00000000  0.05000000  0.73333333
  0.00000000  0.05000000  0.76666667
  0.00000000  0.05000000  0.80000000
  0.00000000  0.05000000  0.83333333
  0.00000000  0.05000000  0.86666667
  0.00000000  0.05000000  0.90000000
  0.00000000  0.05000000  0.93333333
  0.00000000  0.05000000  0.96666667
  0.00000000  0.07500000  0.00000000
  0.00000000  0.07500000  0.03333333
  0.00000000  0.07500000  0.06666667
  0.00000000  0.07500000  0.10000000
  0.00000000  0.07500000  0.13333333
  0.00000000  0.07500000  0.16666667
  0.00000000  0.07500000  0.20000000
  0.00000000  0.07500000  0.23333333
  0.00000000  0.07500000  0.26666667
  0.00000000  0.07500000  0.30000000
  0.00000000  0.07500000  0.33333333
  0.00000000  0.07500000  0.36666667
  0.00000000  0.07500000  0.40000000
  0.00000000  0.07500000  0.43333333
  0.00000000  0.07500000  0.46666667
  0.00000000  0.07500000  0.50000000
  0.00000000  0.07500000  0.53333333
  0.00000000  0.07500000  0.56666667
  0.00000000  0.07500000  0.60000000
  0.00000000  0.07500000  0.63333333
  0.00000000  0.07500000  0.66666667
  0.00000000  0.07500000  0.70000000
  0.00000000  0.07500000  0.73333333
  0.00000000  0.07500000  0.76666667
  0.00000000  0.07500000  0.80000000
  0.00000000  0.07500000  0.83333333
  0.00000000  0.07500000  0.86666667
  0.00000000  0.07500000  0.90000000
  0.00000000  0.07500000  0.93333333
  0.00000000  0.07500000  0.96666667
  0.00000000  0.10000000  0.00000000
  0.00000000  0.10000000  0.03333333
  0.00000000  0.10000000  0.06666667
  0.00000000  0.10000000  0.10000000
  0.00000000  0.10000000  0.13333333
  0.00000000  0.10000000  0.16666667
  0.00000000  0.10000000  0.20000000
  0.00000000  0.10000000  0.23333333
  0.00000000  0.10000000  0.26666667
  0.00000000  0.10000000  0.30000000
  0.00000000  0.10000000  0.33333333
  0.00000000  0.10000000  0.36666667
  0.00000000  0.10000000  0.40000000
  0.00000000  0.10000000  0.43333333
  0.00000000  0.10000000  0.46666667
  0.00000000  0.10000000  0.50000000
  0.00000000  0.10000000  0.53333333
  0.00000000  0.10000000  0.56666667
  0.00000000  0.10000000  0.60000000
  0.00000000  0.10000000  0.63333333
  0.00000000  0.10000000  0.66666667
  0.00000000  0.10000000  0.70000000
  0.00000000  0.10000000  0.73333333
  0.00000000  0.10000000  0.76666667
  0.00000000  0.10000000  0.80000000
  0.00000000  0.10000000  0.83333333
  0.00000000  0.10000000  0.86666667
  0.00000000  0.10000000  0.90000000
  0.00000000  0.10000000  0.93333333
  0.00000000  0.10000000  0.96666667
  0.00000000  0.12500000  0.00000000
  0.00000000  0.12500000  0.03333333
  0.00000000  0.12500000  0.06666667
  0.00000000  0.12500000  0.10000000
  0.00000000  0.12500000  0.13333333
  0.00000000  0.12500000  0.16666667
  0.00000000  0.12500000  0.20000000
  0.00000000  0.12500000  0.23333333
  0.00000000  0.12500000  0.26666667
  0.00000000  0.12500000  0.30000000
  0.00000000  0.12500000  0.33333333
  0.00000000  0.12500000  0.36666667
  0.00000000  0.12500000  0.40000000
  0.00000000  0.12500000  0.43333333
  0.00000000  0.12500000  0.46666667
  0.00000000  0.12500000  0.50000000
  0.00000000  0.12500000  0.53333333
  0.00000000  0.12500000  0.56666667
  0.00000000  0.12500000  0.60000000
  0.00000000  0.12500000  0.63333333
  0.00000000  0.12500000  0.66666667
  0.00000000  0.12500000  0.70000000
  0.00000000  0.12500000  0.73333333
  0.00000000  0.12500000  0.76666667
  0.00000000  0.12500000  0.80000000
  0.00000000  0.12500000  0.83333333
  0.00000000  0.12500000  0.86666667
  0.00000000  0.12500000  0.90000000
  0.00000000  0.12500000  0.93333333
  0.00000000  0.12500000  0.96666667
  0.00000000  0.15000000  0.00000000
  0.00000000  0.15000000  0.03333333
  0.00000000  0.15000000  0.06666667
  0.00000000  0.15000000  0.10000000
  0.00000000  0.15000000  0.13333333
  0.00000000  0.15000000  0.16666667
  0.00000000  0.15000000  0.20000000
  0.00000000  0.15000000  0.23333333
  0.00000000  0.15000000  0.26666667
  0.00000000  0.15000000  0.30000000
  0.00000000  0.15000000  0.33333333
  0.00000000  0.15000000  0.36666667
  0.00000000  0.15000000  0.40000000
  0.00000000  0.15000000  0.43333333
  0.00000000  0.15000000  0.46666667
  0.00000000  0.15000000  0.50000000
  0.00000000  0.15000000  0.53333333
  0.00000000  0.15000000  0.56666667
  0.00000000  0.15000000  0.60000000
  0.00000000  0.15000000  0.63333333
  0.00000000  0.15000000  0.66666667
  0.00000000  0.15000000  0.70000000
  0.00000000  0.15000000  0.73333333
  0.00000000  0.15000000  0.76666667
  0.00000000  0.15000000  0.80000000
  0.00000000  0.15000000  0.83333333
  0.00000000  0.15000000  0.86666667
  0.00000000  0.15000000  0.90000000
  0.00000000  0.15000000  0.93333333
  0.00000000  0.15000000  0.96666667
  0.00000000  0.17500000  0.00000000
  0.00000000  0.17500000  0.03333333
  0.00000000  0.17500000  0.06666667
  0.00000000  0.17500000  0.10000000
  0.00000000  0.17500000  0.13333333
  0.00000000  0.17500000  0.16666667
  0.00000000  0.17500000  0.20000000
  0.00000000  0.17500000  0.23333333
  0.00000000  0.17500000  0.26666667
  0.00000000  0.17500000  0.30000000
  0.00000000  0.17500000  0.33333333
  0.00000000  0.17500000  0.36666667
  0.00000000  0.17500000  0.40000000
  0.00000000  0.17500000  0.43333333
  0.00000000  0.17500000  0.46666667
  0.00000000  0.17500000  0.50000000
  0.00000000  0.17500000  0.53333333
  0.00000000  0.17500000  0.56666667
  0.00000000  0.17500000  0.60000000
  0.00000000  0.17500000  0.63333333
  0.00000000  0.17500000  0.66666667
  0.00000000  0.17500000  0.70000000
  0.00000000  0.17500000  0.73333333
  0.00000000  0.17500000  0.76666667
  0.00000000  0.17500000  0.80000000
  0.00000000  0.17500000  0.83333333
  0.00000000  0.17500000  0.86666667
  0.00000000  0.17500000  0.90000000
  0.00000000  0.17500000  0.93333333
  0.00000000  0.17500000  0.96666667
  0.00000000  0.20000000  0.00000000
  0.00000000  0.20000000  0.03333333
  0.00000000  0.20000000  0.06666667
  0.00000000  0.20000000  0.10000000
  0.00000000  0.20000000  0.13333333
  0.00000000  0.20000000  0.16666667
  0.00000000  0.20000000  0.20000000
  0.00000000  0.20000000  0.23333333
  0.00000000  0.20000000  0.26666667
  0.00000000  0.20000000  0.30000000
  0.00000000  0.20000000  0.33333333
  0.00000000  0.20000000  0.36666667
  0.00000000  0.20000000  0.40000000
  0.00000000  0.20000000  0.43333333
  0.00000000  0.20000000  0.46666667
  0.00000000  0.20000000  0.50000000
  0.00000000  0.20000000  0.53333333
  0.00000000  0.20000000  0.56666667
  0.00000000  0.20000000  0.60000000
  0.00000000  0.20000000  0.63333333
  0.00000000  0.20000000  0.66666667
  0.00000000  0.20000000  0.70000000
  0.00000000  0.20000000  0.73333333
  0.00000000  0.20000000  0.76666667
  0.00000000  0.20000000  0.80000000
  0.00000000  0.20000000  0.83333333
  0.00000000  0.20000000  0.86666667
  0.00000000  0.20000000  0.90000000
  0.00000000  0.20000000  0.93333333
  0.00000000  0.20000000  0.96666667
  0.00000000  0.22500000  0.00000000
  0.00000000  0.22500000  0.03333333
  0.00000000  0.22500000  0.06666667
  0.00000000  0.22500000  0.10000000
  0.00000000  0.22500000  0.13333333
  0.00000000  0.22500000  0.16666667
  0.00000000  0.22500000  0.20000000
  0.00000000  0.22500000  0.23333333
  0.00000000  0.22500000  0.26666667
  0.00000000  0.22500000  0.30000000
  0.00000000  0.22500000  0.33333333
  0.00000000  0.22500000  0.36666667
  0.00000000  0.22500000  0.40000000
  0.00000000  0.22500000  0.43333333
  0.00000000  0.22500000  0.46666667
  0.00000000  0.22500000  0.50000000
  0.00000000  0.22500000  0.53333333
  0.00000000  0.22500000  0.56666667
  0.00000000  0.22500000  0.60000000
  0.00000000  0.22500000  0.63333333
  0.00000000  0.22500000  0.66666667
  0.00000000  0.22500000  0.70000000
  0.00000000  0.22500000  0.73333333
  0.00000000  0.22500000  0.76666667
  0.00000000  0.22500000  0.80000000
  0.00000000  0.22500000  0.83333333
  0.00000000  0.22500000  0.86666667
  0.00000000  0.22500000  0.90000000
  0.00000000  0.22500000  0.93333333
  0.00000000  0.22500000  0.96666667
  0.00000000  0.25000000  0.00000000
  0.00000000  0.25000000  0.03333333
  0.00000000  0.25000000  0.06666667
  0.00000000  0.25000000  0.10000000
  0.00000000  0.25000000  0.13333333
  0.00000000  0.25000000  0.16666667
  0.00000000  0.25000000  0.20000000
  0.00000000  0.25000000  0.23333333
  0.00000000  0.25000000  0.26666667
  0.00000000  0.25000000  0.30000000
  0.00000000  0.25000000  0.33333333
  0.00000000  0.25000000  0.36666667
  0.00000000  0.25000000  0.40000000
  0.00000000  0.25000000  0.43333333
  0.00000000  0.25000000  0.46666667
  0.00000000  0.25000000  0.50000000
  0.00000000  0.25000000  0.53333333
  0.00000000  0.25000000  0.56666667
  0.00000000  0.25000000  0.60000000
  0.00000000  0.25000000  0.63333333
  0.00000000  0.25000000  0.66666667
  0.00000000  0.25000000  0.70000000
  0.00000000  0.25000000  0.73333333
  0.00000000  0.25000000  0.76666667
  0.00000000  0.25000000  0.80000000
  0.00000000  0.25000000  0.83333333
  0.00000000  0.25000000  0.86666667
  0.00000000  0.25000000  0.90000000
  0.00000000  0.25000000  0.93333333
  0.00000000  0.25000000  0.96666667
  0.00000000  0.27500000  0.00000000
  0.00000000  0.27500000  0.03333333
  0.00000000  0.27500000  0.06666667
  0.00000000  0.27500000  0.10000000
  0.00000000  0.27500000  0.13333333
  0.00000000  0.27500000  0.16666667
  0.00000000  0.27500000  0.20000000
  0.00000000  0.27500000  0.23333333
  0.00000000  0.27500000  0.26666667
  0.00000000  0.27500000  0.30000000
  0.00000000  0.27500000  0.33333333
  0.00000000  0.27500000  0.36666667
  0.00000000  0.27500000  0.40000000
  0.00000000  0.27500000  0.43333333
  0.00000000  0.27500000  0.46666667
  0.00000000  0.27500000  0.50000000
  0.00000000  0.27500000  0.53333333
  0.00000000  0.27500000  0.56666667
  0.00000000  0.27500000  0.60000000
  0.00000000  0.27500000  0.63333333
  0.00000000  0.27500000  0.66666667
  0.00000000  0.27500000  0.70000000
  0.00000000  0.27500000  0.73333333
  0.00000000  0.27500000  0.76666667
  0.00000000  0.27500000  0.80000000
  0.00000000  0.27500000  0.83333333
  0.00000000  0.27500000  0.86666667
  0.00000000  0.27500000  0.90000000
  0.00000000  0.27500000  0.93333333
  0.00000000  0.27500000  0.96666667
  0.00000000  0.30000000  0.00000000
  0.00000000  0.30000000  0.03333333
  0.00000000  0.30000000  0.06666667
  0.00000000  0.30000000  0.10000000
  0.00000000  0.30000000  0.13333333
  0.00000000  0.30000000  0.16666667
  0.00000000  0.30000000  0.20000000
  0.00000000  0.30000000  0.23333333
  0.00000000  0.30000000  0.26666667
  0.00000000  0.30000000  0.30000000
  0.00000000  0.30000000  0.33333333
  0.00000000  0.30000000  0.36666667
  0.00000000  0.30000000  0.40000000
  0.00000000  0.30000000  0.43333333
  0.00000000  0.30000000  0.46666667
  0.00000000  0.30000000  0.50000000
  0.00000000  0.30000000  0.53333333
  0.00000000  0.30000000  0.56666667
  0.00000000  0.30000000  0.60000000
  0.00000000  0.30000000  0.63333333
  0.00000000  0.30000000  0.66666667
  0.00000000  0.30000000  0.70000000
  0.00000000  0.30000000  0.73333333
  0.00000000  0.30000000  0.76666667
  0.00000000  0.30000000  0.80000000
  0.00000000  0.30000000  0.83333333
  0.00000000  0.30000000  0.86666667
  0.00000000  0.30000000  0.90000000
  0.00000000  0.30000000  0.93333333
  0.00000000  0.30000000  0.96666667
  0.00000000  0.32500000  0.00000000
  0.00000000  0.32500000  0.03333333
  0.00000000  0.32500000  0.06666667
  0.00000000  0.32500000  0.10000000
  0.00000000  0.32500000  0.13333333
  0.00000000  0.32500000  0.16666667
  0.00000000  0.32500000  0.20000000
  0.00000000  0.32500000  0.23333333
  0.00000000  0.32500000  0.26666667
  0.00000000  0.32500000  0.30000000
  0.00000000  0.32500000  0.33333333
  0.00000000  0.32500000  0.36666667
  0.00000000  0.32500000  0.40000000
  0.00000000  0.32500000  0.43333333
  0.00000000  0.32500000  0.46666667
  0.00000000  0.32500000  0.50000000
  0.00000000  0.32500000  0.53333333
  0.00000000  0.32500000  0.56666667
  0.00000000  0.32500000  0.60000000
  0.00000000  0.32500000  0.63333333
  0.00000000  0.32500000  0.66666667
  0.00000000  0.32500000  0.70000000
  0.00000000  0.32500000  0.73333333
  0.00000000  0.32500000  0.76666667
  0.00000000  0.32500000  0.80000000
  0.00000000  0.32500000  0.83333333
  0.00000000  0.32500000  0.86666667
  0.00000000  0.32500000  0.90000000
  0.00000000  0.32500000  0.93333333
  0.00000000  0.32500000  0.96666667
  0.00000000  0.35000000  0.00000000
  0.00000000  0.35000000  0.03333333
  0.00000000  0.35000000  0.06666667
  0.00000000  0.35000000  0.10000000
  0.00000000  0.35000000  0.13333333
  0.00000000  0.35000000  0.16666667
  0.00000000  0.35000000  0.20000000
  0.00000000  0.35000000  0.23333333
  0.00000000  0.35000000  0.26666667
  0.00000000  0.35000000  0.30000000
  0.00000000  0.35000000  0.33333333
  0.00000000  0.35000000  0.36666667
  0.00000000  0.35000000  0.40000000
  0.00000000  0.35000000  0.43333333
  0.00000000  0.35000000  0.46666667
  0.00000000  0.35000000  0.50000000
  0.00000000  0.35000000  0.53333333
  0.00000000  0.35000000  0.56666667
  0.00000000  0.35000000  0.60000000
  0.00000000  0.35000000  0.63333333
  0.00000000  0.35000000  0.66666667
  0.00000000  0.35000000  0.70000000
  0.00000000  0.35000000  0.73333333
  0.00000000  0.35000000  0.76666667
  0.00000000  0.35000000  0.80000000
  0.00000000  0.35000000  0.83333333
  0.00000000  0.35000000  0.86666667
  0.00000000  0.35000000  0.90000000
  0.00000000  0.35000000  0.93333333
  0.00000000  0.35000000  0.96666667
  0.00000000  0.37500000  0.00000000
  0.00000000  0.37500000  0.03333333
  0.00000000  0.37500000  0.06666667
  0.00000000  0.37500000  0.10000000
  0.00000000  0.37500000  0.13333333
  0.00000000  0.37500000  0.16666667
  0.00000000  0.37500000  0.20000000
  0.00000000  0.37500000  0.23333333
  0.00000000  0.37500000  0.26666667
  0.00000000  0.37500000  0.30000000
  0.00000000  0.37500000  0.33333333
  0.00000000  0.37500000  0.36666667
  0.00000000  0.37500000  0.40000000
  0.00000000  0.37500000  0.43333333
  0.00000000  0.37500000  0.46666667
  0.00000000  0.37500000  0.50000000
  0.00000000  0.37500000  0.53333333
  0.00000000  0.37500000  0.56666667
  0.00000000  0.37500000  0.60000000
  0.00000000  0.37500000  0.63333333
  0.00000000  0.37500000  0.66666667
  0.00000000  0.37500000  0.70000000
  0.00000000  0.37500000  0.73333333
  0.00000000  0.37500000  0.76666667
  0.00000000  0.37500000  0.80000000
  0.00000000  0.37500000  0.83333333
  0.00000000  0.37500000  0.86666667
  0.00000000  0.37500000  0.90000000
  0.00000000  0.37500000  0.93333333
  0.00000000  0.37500000  0.96666667
  0.00000000  0.40000000  0.00000000
  0.00000000  0.40000000  0.03333333
  0.00000000  0.40000000  0.06666667
  0.00000000  0.40000000  0.10000000
  0.00000000  0.40000000  0.13333333
  0.00000000  0.40000000  0.16666667
  0.00000000  0.40000000  0.20000000
  0.00000000  0.40000000  0.23333333
  0.00000000  0.40000000  0.26666667
  0.00000000  0.40000000  0.30000000
  0.00000000  0.40000000  0.33333333
  0.00000000  0.40000000  0.36666667
  0.00000000  0.40000000  0.40000000
  0.00000000  0.40000000  0.43333333
  0.00000000  0.40000000  0.46666667
  0.00000000  0.40000000  0.50000000
  0.00000000  0.40000000  0.53333333
  0.00000000  0.40000000  0.56666667
  0.00000000  0.40000000  0.60000000
  0.00000000  0.40000000  0.63333333
  0.00000000  0.40000000  0.66666667
  0.00000000  0.40000000  0.70000000
  0.00000000  0.40000000  0.73333333
  0.00000000  0.40000000  0.76666667
  0.00000000  0.40000000  0.80000000
  0.00000000  0.40000000  0.83333333
  0.00000000  0.40000000  0.86666667
  0.00000000  0.40000000  0.90000000
  0.00000000  0.40000000  0.93333333
  0.00000000  0.40000000  0.96666667
  0.00000000  0.42500000  0.00000000
  0.00000000  0.42500000  0.03333333
  0.00000000  0.42500000  0.06666667
  0.00000000  0.42500000  0.10000000
  0.00000000  0.42500000  0.13333333
  0.00000000  0.42500000  0.16666667
  0.00000000  0.42500000  0.20000000
  0.00000000  0.42500000  0.23333333
  0.00000000  0.42500000  0.26666667
  0.00000000  0.42500000  0.30000000
  0.00000000  0.42500000  0.33333333
  0.00000000  0.42500000  0.36666667
  0.00000000  0.42500000  0.40000000
  0.00000000  0.42500000  0.43333333
  0.00000000  0.42500000  0.46666667
  0.00000000  0.42500000  0.50000000
  0.00000000  0.42500000  0.53333333
  0.00000000  0.42500000  0.56666667
  0.00000000  0.42500000  0.60000000
  0.00000000  0.42500000  0.63333333
  0.00000000  0.42500000  0.66666667
  0.00000000  0.42500000  0.70000000
  0.00000000  0.42500000  0.73333333
  0.00000000  0.42500000  0.76666667
  0.00000000  0.42500000  0.80000000
  0.00000000  0.42500000  0.83333333
  0.00000000  0.42500000  0.86666667
  0.00000000  0.42500000  0.90000000
  0.00000000  0.42500000  0.93333333
  0.00000000  0.42500000  0.96666667
  0.00000000  0.45000000  0.00000000
  0.00000000  0.45000000  0.03333333
  0.00000000  0.45000000  0.06666667
  0.00000000  0.45000000  0.10000000
  0.00000000  0.45000000  0.13333333
  0.00000000  0.45000000  0.16666667
  0.00000000  0.45000000  0.20000000
  0.00000000  0.45000000  0.23333333
  0.00000000  0.45000000  0.26666667
  0.00000000  0.45000000  0.30000000
  0.00000000  0.45000000  0.33333333
  0.00000000  0.45000000  0.36666667
  0.00000000  0.45000000  0.40000000
  0.00000000  0.45000000  0.43333333
  0.00000000  0.45000000  0.46666667
  0.00000000  0.45000000  0.50000000
  0.00000000  0.45000000  0.53333333
  0.00000000  0.45000000  0.56666667
  0.00000000  0.45000000  0.60000000
  0.00000000  0.45000000  0.63333333
  0.00000000  0.45000000  0.66666667
  0.00000000  0.45000000  0.70000000
  0.00000000  0.45000000  0.73333333
  0.00000000  0.45000000  0.76666667
  0.00000000  0.45000000  0.80000000
  0.00000000  0.45000000  0.83333333
  0.00000000  0.45000000  0.86666667
  0.00000000  0.45000000  0.90000000
  0.00000000  0.45000000  0.93333333
  0.00000000  0.45000000  0.96666667
  0.00000000  0.47500000  0.00000000
  0.00000000  0.47500000  0.03333333
  0.00000000  0.47500000  0.06666667
  0.00000000  0.47500000  0.10000000
  0.00000000  0.47500000  0.13333333
  0.00000000  0.47500000  0.16666667
  0.00000000  0.47500000  0.20000000
  0.00000000  0.47500000  0.23333333
  0.00000000  0.47500000  0.26666667
  0.00000000  0.47500000  0.30000000
  0.00000000  0.47500000  0.33333333
  0.00000000  0.47500000  0.36666667
  0.00000000  0.47500000  0.40000000
  0.00000000  0.47500000  0.43333333
  0.00000000  0.47500000  0.46666667
  0.00000000  0.47500000  0.50000000
  0.00000000  0.47500000  0.53333333
  0.00000000  0.47500000  0.56666667
  0.00000000  0.47500000  0.60000000
  0.00000000  0.47500000  0.63333333
  0.00000000  0.47500000  0.66666667
  0.00000000  0.47500000  0.70000000
  0.00000000  0.47500000  0.73333333
  0.00000000  0.47500000  0.76666667
  0.00000000  0.47500000  0.80000000
  0.00000000  0.47500000  0.83333333
  0.00000000  0.47500000  0.86666667
  0.00000000  0.47500000  0.90000000
  0.00000000  0.47500000  0.93333333
  0.00000000  0.47500000  0.96666667
  0.00000000  0.50000000  0.00000000
  0.00000000  0.50000000  0.03333333
  0.00000000  0.50000000  0.06666667
  0.00000000  0.50000000  0.10000000
  0.00000000  0.50000000  0.13333333
  0.00000000  0.50000000  0.16666667
  0.00000000  0.50000000  0.20000000
  0.00000000  0.50000000  0.23333333
  0.00000000  0.50000000  0.26666667
  0.00000000  0.50000000  0.30000000
  0.00000000  0.50000000  0.33333333
  0.00000000  0.50000000  0.36666667
  0.00000000  0.50000000  0.40000000
  0.00000000  0.50000000  0.43333333
  0.00000000  0.50000000  0.46666667
  0.00000000  0.50000000  0.50000000
  0.00000000  0.50000000  0.53333333
  0.00000000  0.50000000  0.56666667
  0.00000000  0.50000000  0.60000000
  0.00000000  0.50000000  0.63333333
  0.00000000  0.50000000  0.66666667
  0.00000000  0.50000000  0.70000000
  0.00000000  0.50000000  0.73333333
  0.00000000  0.50000000  0.76666667
  0.00000000  0.50000000  0.80000000
  0.00000000  0.50000000  0.83333333
  0.00000000  0.50000000  0.86666667
  0.00000000  0.50000000  0.90000000
  0.00000000  0.50000000  0.93333333
  0.00000000  0.50000000  0.96666667
  0.00000000  0.52500000  0.00000000
  0.00000000  0.52500000  0.03333333
  0.00000000  0.52500000  0.06666667
  0.00000000  0.52500000  0.10000000
  0.00000000  0.52500000  0.13333333
  0.00000000  0.52500000  0.16666667
  0.00000000  0.52500000  0.20000000
  0.00000000  0.52500000  0.23333333
  0.00000000  0.52500000  0.26666667
  0.00000000  0.52500000  0.30000000
  0.00000000  0.52500000  0.33333333
  0.00000000  0.52500000  0.36666667
  0.00000000  0.52500000  0.40000000
  0.00000000  0.52500000  0.43333333
  0.00000000  0.52500000  0.46666667
  0.00000000  0.52500000  0.50000000
  0.00000000  0.52500000  0.53333333
  0.00000000  0.52500000  0.56666667
  0.00000000  0.52500000  0.60000000
  0.00000000  0.52500000  0.63333333
  0.00000000  0.52500000  0.66666667
  0.00000000  0.52500000  0.70000000
  0.00000000  0.52500000  0.73333333
  0.00000000  0.52500000  0.76666667
  0.00000000  0.52500000  0.80000000
  0.00000000  0.52500000  0.83333333
  0.00000000  0.52500000  0.86666667
  0.00000000  0.52500000  0.90000000
  0.00000000  0.52500000  0.93333333
  0.00000000  0.52500000  0.96666667
  0.00000000  0.55000000  0.00000000
  0.00000000  0.55000000  0.03333333
  0.00000000  0.55000000  0.06666667
  0.00000000  0.55000000  0.10000000
  0.00000000  0.55000000  0.13333333
  0.00000000  0.55000000  0.16666667
  0.00000000  0.55000000  0.20000000
  0.00000000  0.55000000  0.23333333
  0.00000000  0.55000000  0.26666667
  0.00000000  0.55000000  0.30000000
  0.00000000  0.55000000  0.33333333
  0.00000000  0.55000000  0.36666667
  0.00000000  0.55000000  0.40000000
  0.00000000  0.55000000  0.43333333
  0.00000000  0.55000000  0.46666667
  0.00000000  0.55000000  0.50000000
  0.00000000  0.55000000  0.53333333
  0.00000000  0.55000000  0.56666667
  0.00000000  0.55000000  0.60000000
  0.00000000  0.55000000  0.63333333
  0.00000000  0.55000000  0.66666667
  0.00000000  0.55000000  0.70000000
  0.00000000  0.55000000  0.73333333
  0.00000000  0.55000000  0.76666667
  0.00000000  0.55000000  0.80000000
  0.00000000  0.55000000  0.83333333
  0.00000000  0.55000000  0.86666667
  0.00000000  0.55000000  0.90000000
  0.00000000  0.55000000  0.93333333
  0.00000000  0.55000000  0.96666667
  0.00000000  0.57500000  0.00000000
  0.00000000  0.57500000  0.03333333
  0.00000000  0.57500000  0.06666667
  0.00000000  0.57500000  0.10000000
  0.00000000  0.57500000  0.13333333
  0.00000000  0.57500000  0.16666667
  0.00000000  0.57500000  0.20000000
  0.00000000  0.57500000  0.23333333
  0.00000000  0.57500000  0.26666667
  0.00000000  0.57500000  0.30000000
  0.00000000  0.57500000  0.33333333
  0.00000000  0.57500000  0.36666667
  0.00000000  0.57500000  0.40000000
  0.00000000  0.57500000  0.43333333
  0.00000000  0.57500000  0.46666667
  0.00000000  0.57500000  0.50000000
  0.00000000  0.57500000  0.53333333
  0.00000000  0.57500000  0.56666667
  0.00000000  0.57500000  0.60000000
  0.00000000  0.57500000  0.63333333
  0.00000000  0.57500000  0.66666667
  0.00000000  0.57500000  0.70000000
  0.00000000  0.57500000  0.73333333
  0.00000000  0.57500000  0.76666667
  0.00000000  0.57500000  0.80000000
  0.00000000  0.57500000  0.83333333
  0.00000000  0.57500000  0.86666667
  0.00000000  0.57500000  0.90000000
  0.00000000  0.57500000  0.93333333
  0.00000000  0.57500000  0.96666667
  0.00000000  0.60000000  0.00000000
  0.00000000  0.60000000  0.03333333
  0.00000000  0.60000000  0.06666667
  0.00000000  0.60000000  0.10000000
  0.00000000  0.60000000  0.13333333
  0.00000000  0.60000000  0.16666667
  0.00000000  0.60000000  0.20000000
  0.00000000  0.60000000  0.23333333
  0.00000000  0.60000000  0.26666667
  0.00000000  0.60000000  0.30000000
  0.00000000  0.60000000  0.33333333
  0.00000000  0.60000000  0.36666667
  0.00000000  0.60000000  0.40000000