&inputpp
  outdir     =  './out/'
  prefix     =  'NbP_spin'
  seedname   =  'NbP'
  write_mmn = .true.
  write_amn = .true.
  write_spn = .true.
  write_unk = .false.
/
