&CONTROL
  calculation = 'nscf'
  restart_mode = "from_scratch"
  etot_conv_thr =   4.0000000000d-05
  forc_conv_thr =   1.0000000000d-04
  outdir = './out/'
  prefix = 'NbP_spin'
  pseudo_dir = './pseudo/'
  tprnfor = .true.
  tstress = .true.
  verbosity = 'high'
/
&SYSTEM
  degauss =   7.3498618000d-03
  ecutrho =   3.2000000000d+02
  ecutwfc =   4.0000000000d+01
  ibrav = 0
  nat = 4
  nosym = .false.
  nspin = 2
  ntyp = 2
  occupations = 'smearing'
  smearing = 'gaussian'
  starting_magnetization(1) =   3.8461538462d-01
  starting_magnetization(2) =   1.0000000000d-01
/
&ELECTRONS
  conv_thr =   8.0000000000d-10
  electron_maxstep = 80
  mixing_beta =   4.0000000000d-01
/
ATOMIC_SPECIES
Nb     92.90638 Nb.pbesol-spn-kjpaw_psl.0.3.0.UPF
P      30.973761 P.pbesol-n-rrkjus_psl.1.0.0.UPF
ATOMIC_POSITIONS crystal
Nb           0.7499230000       0.7499230000       0.4998460000 
Nb           0.4999230000       0.9999230000       0.9998460000 
P            0.1674470000       0.1674470000       0.3348940000 
P            0.9174470000       0.4174470000       0.8348940000 
K_POINTS crystal
48000
  0.00000000  0.00000000  0.00000000  2.083333e-05
  0.00000000  0.00000000  0.03333333  2.083333e-05
  0.00000000  0.00000000  0.06666667  2.083333e-05
  0.00000000  0.00000000  0.10000000  2.083333e-05
  0.00000000  0.00000000  0.13333333  2.083333e-05
  0.00000000  0.00000000  0.16666667  2.083333e-05
  0.00000000  0.00000000  0.20000000  2.083333e-05
  0.00000000  0.00000000  0.23333333  2.083333e-05
  0.00000000  0.00000000  0.26666667  2.083333e-05
  0.00000000  0.00000000  0.30000000  2.083333e-05
  0.00000000  0.00000000  0.33333333  2.083333e-05
  0.00000000  0.00000000  0.36666667  2.083333e-05
  0.00000000  0.00000000  0.40000000  2.083333e-05
  0.00000000  0.00000000  0.43333333  2.083333e-05
  0.00000000  0.00000000  0.46666667  2.083333e-05
  0.00000000  0.00000000  0.50000000  2.083333e-05
  0.00000000  0.00000000  0.53333333  2.083333e-05
  0.00000000  0.00000000  0.56666667  2.083333e-05
  0.00000000  0.00000000  0.60000000  2.083333e-05
  0.00000000  0.00000000  0.63333333  2.083333e-05
  0.00000000  0.00000000  0.66666667  2.083333e-05
  0.00000000  0.00000000  0.70000000  2.083333e-05
  0.00000000  0.00000000  0.73333333  2.083333e-05
  0.00000000  0.00000000  0.76666667  2.083333e-05
  0.00000000  0.00000000  0.80000000  2.083333e-05
  0.00000000  0.00000000  0.83333333  2.083333e-05
  0.00000000  0.00000000  0.86666667  2.083333e-05
  0.00000000  0.00000000  0.90000000  2.083333e-05
  0.00000000  0.00000000  0.93333333  2.083333e-05
  0.00000000  0.00000000  0.96666667  2.083333e-05
  0.00000000  0.02500000  0.00000000  2.083333e-05
  0.00000000  0.02500000  0.03333333  2.083333e-05
  0.00000000  0.02500000  0.06666667  2.083333e-05
  0.00000000  0.02500000  0.10000000  2.083333e-05
  0.00000000  0.02500000  0.13333333  2.083333e-05
  0.00000000  0.02500000  0.16666667  2.083333e-05
  0.00000000  0.02500000  0.20000000  2.083333e-05
  0.00000000  0.02500000  0.23333333  2.083333e-05
  0.00000000  0.02500000  0.26666667  2.083333e-05
  0.00000000  0.02500000  0.30000000  2.083333e-05
  0.00000000  0.02500000  0.33333333  2.083333e-05
  0.00000000  0.02500000  0.36666667  2.083333e-05
  0.00000000  0.02500000  0.40000000  2.083333e-05
  0.00000000  0.02500000  0.43333333  2.083333e-05
  0.00000000  0.02500000  0.46666667  2.083333e-05
  0.00000000  0.02500000  0.50000000  2.083333e-05
  0.00000000  0.02500000  0.53333333  2.083333e-05
  0.00000000  0.02500000  0.56666667  2.083333e-05
  0.00000000  0.02500000  0.60000000  2.083333e-05
  0.00000000  0.02500000  0.63333333  2.083333e-05
  0.00000000  0.02500000  0.66666667  2.083333e-05
  0.00000000  0.02500000  0.70000000  2.083333e-05
  0.00000000  0.02500000  0.73333333  2.083333e-05
  0.00000000  0.02500000  0.76666667  2.083333e-05
  0.00000000  0.02500000  0.80000000  2.083333e-05
  0.00000000  0.02500000  0.83333333  2.083333e-05
  0.00000000  0.02500000  0.86666667  2.083333e-05
  0.00000000  0.02500000  0.90000000  2.083333e-05
  0.00000000  0.02500000  0.93333333  2.083333e-05
  0.00000000  0.02500000  0.96666667  2.083333e-05
  0.00000000  0.05000000  0.00000000  2.083333e-05
  0.00000000  0.05000000  0.03333333  2.083333e-05
  0.00000000  0.05000000  0.06666667  2.083333e-05
  0.00000000  0.05000000  0.10000000  2.083333e-05
  0.00000000  0.05000000  0.13333333  2.083333e-05
  0.00000000  0.05000000  0.16666667  2.083333e-05
  0.00000000  0.05000000  0.20000000  2.083333e-05
  0.00000000  0.05000000  0.23333333  2.083333e-05
  0.00000000  0.05000000  0.26666667  2.083333e-05
  0.00000000  0.05000000  0.30000000  2.083333e-05
  0.00000000  0.05000000  0.33333333  2.083333e-05
  0.00000000  0.05000000  0.36666667  2.083333e-05
  0.00000000  0.05000000  0.40000000  2.083333e-05
  0.00000000  0.05000000  0.43333333  2.083333e-05
  0.00000000  0.05000000  0.46666667  2.083333e-05
  0.00000000  0.05000000  0.50000000  2.083333e-05
  0.00000000  0.05000000  0.53333333  2.083333e-05
  0.00000000  0.05000000  0.56666667  2.083333e-05
  0.00000000  0.05000000  0.60000000  2.083333e-05
  0.00000000  0.05000000  0.63333333  2.083333e-05
  0.00000000  0.05000000  0.66666667  2.083333e-05
  0.00000000  0.05000000  0.70000000  2.083333e-05
  0.00000000  0.05000000  0.73333333  2.083333e-05
  0.00000000  0.05000000  0.76666667  2.083333e-05
  0.00000000  0.05000000  0.80000000  2.083333e-05
  0.00000000  0.05000000  0.83333333  2.083333e-05
  0.00000000  0.05000000  0.86666667  2.083333e-05
  0.00000000  0.05000000  0.90000000  2.083333e-05
  0.00000000  0.05000000  0.93333333  2.083333e-05
  0.00000000  0.05000000  0.96666667  2.083333e-05
  0.00000000  0.07500000  0.00000000  2.083333e-05
  0.00000000  0.07500000  0.03333333  2.083333e-05
  0.00000000  0.07500000  0.06666667  2.083333e-05
  0.00000000  0.07500000  0.10000000  2.083333e-05
  0.00000000  0.07500000  0.13333333  2.083333e-05
  0.00000000  0.07500000  0.16666667  2.083333e-05
  0.00000000  0.07500000  0.20000000  2.083333e-05
  0.00000000  0.07500000  0.23333333  2.083333e-05
  0.00000000  0.07500000  0.26666667  2.083333e-05
  0.00000000  0.07500000  0.30000000  2.083333e-05
  0.00000000  0.07500000  0.33333333  2.083333e-05
  0.00000000  0.07500000  0.36666667  2.083333e-05
  0.00000000  0.07500000  0.40000000  2.083333e-05
  0.00000000  0.07500000  0.43333333  2.083333e-05
  0.00000000  0.07500000  0.46666667  2.083333e-05
  0.00000000  0.07500000  0.50000000  2.083333e-05
  0.00000000  0.07500000  0.53333333  2.083333e-05
  0.00000000  0.07500000  0.56666667  2.083333e-05
  0.00000000  0.07500000  0.60000000  2.083333e-05
  0.00000000  0.07500000  0.63333333  2.083333e-05
  0.00000000  0.07500000  0.66666667  2.083333e-05
  0.00000000  0.07500000  0.70000000  2.083333e-05
  0.00000000  0.07500000  0.73333333  2.083333e-05
  0.00000000  0.07500000  0.76666667  2.083333e-05
  0.00000000  0.07500000  0.80000000  2.083333e-05
  0.00000000  0.07500000  0.83333333  2.083333e-05
  0.00000000  0.07500000  0.86666667  2.083333e-05
  0.00000000  0.07500000  0.90000000  2.083333e-05
  0.00000000  0.07500000  0.93333333  2.083333e-05
  0.00000000  0.07500000  0.96666667  2.083333e-05
  0.00000000  0.10000000  0.00000000  2.083333e-05
  0.00000000  0.10000000  0.03333333  2.083333e-05
  0.00000000  0.10000000  0.06666667  2.083333e-05
  0.00000000  0.10000000  0.10000000  2.083333e-05
  0.00000000  0.10000000  0.13333333  2.083333e-05
  0.00000000  0.10000000  0.16666667  2.083333e-05
  0.00000000  0.10000000  0.20000000  2.083333e-05
  0.00000000  0.10000000  0.23333333  2.083333e-05
  0.00000000  0.10000000  0.26666667  2.083333e-05
  0.00000000  0.10000000  0.30000000  2.083333e-05
  0.00000000  0.10000000  0.33333333  2.083333e-05
  0.00000000  0.10000000  0.36666667  2.083333e-05
  0.00000000  0.10000000  0.40000000  2.083333e-05
  0.00000000  0.10000000  0.43333333  2.083333e-05
  0.00000000  0.10000000  0.46666667  2.083333e-05
  0.00000000  0.10000000  0.50000000  2.083333e-05
  0.00000000  0.10000000  0.53333333  2.083333e-05
  0.00000000  0.10000000  0.56666667  2.083333e-05
  0.00000000  0.10000000  0.60000000  2.083333e-05
  0.00000000  0.10000000  0.63333333  2.083333e-05
  0.00000000  0.10000000  0.66666667  2.083333e-05
  0.00000000  0.10000000  0.70000000  2.083333e-05
  0.00000000  0.10000000  0.73333333  2.083333e-05
  0.00000000  0.10000000  0.76666667  2.083333e-05
  0.00000000  0.10000000  0.80000000  2.083333e-05
  0.00000000  0.10000000  0.83333333  2.083333e-05
  0.00000000  0.10000000  0.86666667  2.083333e-05
  0.00000000  0.10000000  0.90000000  2.083333e-05
  0.00000000  0.10000000  0.93333333  2.083333e-05
  0.00000000  0.10000000  0.96666667  2.083333e-05
  0.00000000  0.12500000  0.00000000  2.083333e-05
  0.00000000  0.12500000  0.03333333  2.083333e-05
  0.00000000  0.12500000  0.06666667  2.083333e-05
  0.00000000  0.12500000  0.10000000  2.083333e-05
  0.00000000  0.12500000  0.13333333  2.083333e-05
  0.00000000  0.12500000  0.16666667  2.083333e-05
  0.00000000  0.12500000  0.20000000  2.083333e-05
  0.00000000  0.12500000  0.23333333  2.083333e-05
  0.00000000  0.12500000  0.26666667  2.083333e-05
  0.00000000  0.12500000  0.30000000  2.083333e-05
  0.00000000  0.12500000  0.33333333  2.083333e-05
  0.00000000  0.12500000  0.36666667  2.083333e-05
  0.00000000  0.12500000  0.40000000  2.083333e-05
  0.00000000  0.12500000  0.43333333  2.083333e-05
  0.00000000  0.12500000  0.46666667  2.083333e-05
  0.00000000  0.12500000  0.50000000  2.083333e-05
  0.00000000  0.12500000  0.53333333  2.083333e-05
  0.00000000  0.12500000  0.56666667  2.083333e-05
  0.00000000  0.12500000  0.60000000  2.083333e-05
  0.00000000  0.12500000  0.63333333  2.083333e-05
  0.00000000  0.12500000  0.66666667  2.083333e-05
  0.00000000  0.12500000  0.70000000  2.083333e-05
  0.00000000  0.12500000  0.73333333  2.083333e-05
  0.00000000  0.12500000  0.76666667  2.083333e-05
  0.00000000  0.12500000  0.80000000  2.083333e-05
  0.00000000  0.12500000  0.83333333  2.083333e-05
  0.00000000  0.12500000  0.86666667  2.083333e-05
  0.00000000  0.12500000  0.90000000  2.083333e-05
  0.00000000  0.12500000  0.93333333  2.083333e-05
  0.00000000  0.12500000  0.96666667  2.083333e-05
  0.00000000  0.15000000  0.00000000  2.083333e-05
  0.00000000  0.15000000  0.03333333  2.083333e-05
  0.00000000  0.15000000  0.06666667  2.083333e-05
  0.00000000  0.15000000  0.10000000  2.083333e-05
  0.00000000  0.15000000  0.13333333  2.083333e-05
  0.00000000  0.15000000  0.16666667  2.083333e-05
  0.00000000  0.15000000  0.20000000  2.083333e-05
  0.00000000  0.15000000  0.23333333  2.083333e-05
  0.00000000  0.15000000  0.26666667  2.083333e-05
  0.00000000  0.15000000  0.30000000  2.083333e-05
  0.00000000  0.15000000  0.33333333  2.083333e-05
  0.00000000  0.15000000  0.36666667  2.083333e-05
  0.00000000  0.15000000  0.40000000  2.083333e-05
  0.00000000  0.15000000  0.43333333  2.083333e-05
  0.00000000  0.15000000  0.46666667  2.083333e-05
  0.00000000  0.15000000  0.50000000  2.083333e-05
  0.00000000  0.15000000  0.53333333  2.083333e-05
  0.00000000  0.15000000  0.56666667  2.083333e-05
  0.00000000  0.15000000  0.60000000  2.083333e-05
  0.00000000  0.15000000  0.63333333  2.083333e-05
  0.00000000  0.15000000  0.66666667  2.083333e-05
  0.00000000  0.15000000  0.70000000  2.083333e-05
  0.00000000  0.15000000  0.73333333  2.083333e-05
  0.00000000  0.15000000  0.76666667  2.083333e-05
  0.00000000  0.15000000  0.80000000  2.083333e-05
  0.00000000  0.15000000  0.83333333  2.083333e-05
  0.00000000  0.15000000  0.86666667  2.083333e-05
  0.00000000  0.15000000  0.90000000  2.083333e-05
  0.00000000  0.15000000  0.93333333  2.083333e-05
  0.00000000  0.15000000  0.96666667  2.083333e-05
  0.00000000  0.17500000  0.00000000  2.083333e-05
  0.00000000  0.17500000  0.03333333  2.083333e-05
  0.00000000  0.17500000  0.06666667  2.083333e-05
  0.00000000  0.17500000  0.10000000  2.083333e-05
  0.00000000  0.17500000  0.13333333  2.083333e-05
  0.00000000  0.17500000  0.16666667  2.083333e-05
  0.00000000  0.17500000  0.20000000  2.083333e-05
  0.00000000  0.17500000  0.23333333  2.083333e-05
  0.00000000  0.17500000  0.26666667  2.083333e-05
  0.00000000  0.17500000  0.30000000  2.083333e-05
  0.00000000  0.17500000  0.33333333  2.083333e-05
  0.00000000  0.17500000  0.36666667  2.083333e-05
  0.00000000  0.17500000  0.40000000  2.083333e-05
  0.00000000  0.17500000  0.43333333  2.083333e-05
  0.00000000  0.17500000  0.46666667  2.083333e-05
  0.00000000  0.17500000  0.50000000  2.083333e-05
  0.00000000  0.17500000  0.53333333  2.083333e-05
  0.00000000  0.17500000  0.56666667  2.083333e-05
  0.00000000  0.17500000  0.60000000  2.083333e-05
  0.00000000  0.17500000  0.63333333  2.083333e-05
  0.00000000  0.17500000  0.66666667  2.083333e-05
  0.00000000  0.17500000  0.70000000  2.083333e-05
  0.00000000  0.17500000  0.73333333  2.083333e-05
  0.00000000  0.17500000  0.76666667  2.083333e-05
  0.00000000  0.17500000  0.80000000  2.083333e-05
  0.00000000  0.17500000  0.83333333  2.083333e-05
  0.00000000  0.17500000  0.86666667  2.083333e-05
  0.00000000  0.17500000  0.90000000  2.083333e-05
  0.00000000  0.17500000  0.93333333  2.083333e-05
  0.00000000  0.17500000  0.96666667  2.083333e-05
  0.00000000  0.20000000  0.00000000  2.083333e-05
  0.00000000  0.20000000  0.03333333  2.083333e-05
  0.00000000  0.20000000  0.06666667  2.083333e-05
  0.00000000  0.20000000  0.10000000  2.083333e-05
  0.00000000  0.20000000  0.13333333  2.083333e-05
  0.00000000  0.20000000  0.16666667  2.083333e-05
  0.00000000  0.20000000  0.20000000  2.083333e-05
  0.00000000  0.20000000  0.23333333  2.083333e-05
  0.00000000  0.20000000  0.26666667  2.083333e-05
  0.00000000  0.20000000  0.30000000  2.083333e-05
  0.00000000  0.20000000  0.33333333  2.083333e-05
  0.00000000  0.20000000  0.36666667  2.083333e-05
  0.00000000  0.20000000  0.40000000  2.083333e-05
  0.00000000  0.20000000  0.43333333  2.083333e-05
  0.00000000  0.20000000  0.46666667  2.083333e-05
  0.00000000  0.20000000  0.50000000  2.083333e-05
  0.00000000  0.20000000  0.53333333  2.083333e-05
  0.00000000  0.20000000  0.56666667  2.083333e-05
  0.00000000  0.20000000  0.60000000  2.083333e-05
  0.00000000  0.20000000  0.63333333  2.083333e-05
  0.00000000  0.20000000  0.66666667  2.083333e-05
  0.00000000  0.20000000  0.70000000  2.083333e-05
  0.00000000  0.20000000  0.73333333  2.083333e-05
  0.00000000  0.20000000  0.76666667  2.083333e-05
  0.00000000  0.20000000  0.80000000  2.083333e-05
  0.00000000  0.20000000  0.83333333  2.083333e-05
  0.00000000  0.20000000  0.86666667  2.083333e-05
  0.00000000  0.20000000  0.90000000  2.083333e-05
  0.00000000  0.20000000  0.93333333  2.083333e-05
  0.00000000  0.20000000  0.96666667  2.083333e-05
  0.00000000  0.22500000  0.00000000  2.083333e-05
  0.00000000  0.22500000  0.03333333  2.083333e-05
  0.00000000  0.22500000  0.06666667  2.083333e-05
  0.00000000  0.22500000  0.10000000  2.083333e-05
  0.00000000  0.22500000  0.13333333  2.083333e-05
  0.00000000  0.22500000  0.16666667  2.083333e-05
  0.00000000  0.22500000  0.20000000  2.083333e-05
  0.00000000  0.22500000  0.23333333  2.083333e-05
  0.00000000  0.22500000  0.26666667  2.083333e-05
  0.00000000  0.22500000  0.30000000  2.083333e-05
  0.00000000  0.22500000  0.33333333  2.083333e-05
  0.00000000  0.22500000  0.36666667  2.083333e-05
  0.00000000  0.22500000  0.40000000  2.083333e-05
  0.00000000  0.22500000  0.43333333  2.083333e-05
  0.00000000  0.22500000  0.46666667  2.083333e-05
  0.00000000  0.22500000  0.50000000  2.083333e-05
  0.00000000  0.22500000  0.53333333  2.083333e-05
  0.00000000  0.22500000  0.56666667  2.083333e-05
  0.00000000  0.22500000  0.60000000  2.083333e-05
  0.00000000  0.22500000  0.63333333  2.083333e-05
  0.00000000  0.22500000  0.66666667  2.083333e-05
  0.00000000  0.22500000  0.70000000  2.083333e-05
  0.00000000  0.22500000  0.73333333  2.083333e-05
  0.00000000  0.22500000  0.76666667  2.083333e-05
  0.00000000  0.22500000  0.80000000  2.083333e-05
  0.00000000  0.22500000  0.83333333  2.083333e-05
  0.00000000  0.22500000  0.86666667  2.083333e-05
  0.00000000  0.22500000  0.90000000  2.083333e-05
  0.00000000  0.22500000  0.93333333  2.083333e-05
  0.00000000  0.22500000  0.96666667  2.083333e-05
  0.00000000  0.25000000  0.00000000  2.083333e-05
  0.00000000  0.25000000  0.03333333  2.083333e-05
  0.00000000  0.25000000  0.06666667  2.083333e-05
  0.00000000  0.25000000  0.10000000  2.083333e-05
  0.00000000  0.25000000  0.13333333  2.083333e-05
  0.00000000  0.25000000  0.16666667  2.083333e-05
  0.00000000  0.25000000  0.20000000  2.083333e-05
  0.00000000  0.25000000  0.23333333  2.083333e-05
  0.00000000  0.25000000  0.26666667  2.083333e-05
  0.00000000  0.25000000  0.30000000  2.083333e-05
  0.00000000  0.25000000  0.33333333  2.083333e-05
  0.00000000  0.25000000  0.36666667  2.083333e-05
  0.00000000  0.25000000  0.40000000  2.083333e-05
  0.00000000  0.25000000  0.43333333  2.083333e-05
  0.00000000  0.25000000  0.46666667  2.083333e-05
  0.00000000  0.25000000  0.50000000  2.083333e-05
  0.00000000  0.25000000  0.53333333  2.083333e-05
  0.00000000  0.25000000  0.56666667  2.083333e-05
  0.00000000  0.25000000  0.60000000  2.083333e-05
  0.00000000  0.25000000  0.63333333  2.083333e-05
  0.00000000  0.25000000  0.66666667  2.083333e-05
  0.00000000  0.25000000  0.70000000  2.083333e-05
  0.00000000  0.25000000  0.73333333  2.083333e-05
  0.00000000  0.25000000  0.76666667  2.083333e-05
  0.00000000  0.25000000  0.80000000  2.083333e-05
  0.00000000  0.25000000  0.83333333  2.083333e-05
  0.00000000  0.25000000  0.86666667  2.083333e-05
  0.00000000  0.25000000  0.90000000  2.083333e-05
  0.00000000  0.25000000  0.93333333  2.083333e-05
  0.00000000  0.25000000  0.96666667  2.083333e-05
  0.00000000  0.27500000  0.00000000  2.083333e-05
  0.00000000  0.27500000  0.03333333  2.083333e-05
  0.00000000  0.27500000  0.06666667  2.083333e-05
  0.00000000  0.27500000  0.10000000  2.083333e-05
  0.00000000  0.27500000  0.13333333  2.083333e-05
  0.00000000  0.27500000  0.16666667  2.083333e-05
  0.00000000  0.27500000  0.20000000  2.083333e-05
  0.00000000  0.27500000  0.23333333  2.083333e-05
  0.00000000  0.27500000  0.26666667  2.083333e-05
  0.00000000  0.27500000  0.30000000  2.083333e-05
  0.00000000  0.27500000  0.33333333  2.083333e-05
  0.00000000  0.27500000  0.36666667  2.083333e-05
  0.00000000  0.27500000  0.40000000  2.083333e-05
  0.00000000  0.27500000  0.43333333  2.083333e-05
  0.00000000  0.27500000  0.46666667  2.083333e-05
  0.00000000  0.27500000  0.50000000  2.083333e-05
  0.00000000  0.27500000  0.53333333  2.083333e-05
  0.00000000  0.27500000  0.56666667  2.083333e-05
  0.00000000  0.27500000  0.60000000  2.083333e-05
  0.00000000  0.27500000  0.63333333  2.083333e-05
  0.00000000  0.27500000  0.66666667  2.083333e-05
  0.00000000  0.27500000  0.70000000  2.083333e-05
  0.00000000  0.27500000  0.73333333  2.083333e-05
  0.00000000  0.27500000  0.76666667  2.083333e-05
  0.00000000  0.27500000  0.80000000  2.083333e-05
  0.00000000  0.27500000  0.83333333  2.083333e-05
  0.00000000  0.27500000  0.86666667  2.083333e-05
  0.00000000  0.27500000  0.90000000  2.083333e-05
  0.00000000  0.27500000  0.93333333  2.083333e-05
  0.00000000  0.27500000  0.96666667  2.083333e-05
  0.00000000  0.30000000  0.00000000  2.083333e-05
  0.00000000  0.30000000  0.03333333  2.083333e-05
  0.00000000  0.30000000  0.06666667  2.083333e-05
  0.00000000  0.30000000  0.10000000  2.083333e-05
  0.00000000  0.30000000  0.13333333  2.083333e-05
  0.00000000  0.30000000  0.16666667  2.083333e-05
  0.00000000  0.30000000  0.20000000  2.083333e-05
  0.00000000  0.30000000  0.23333333  2.083333e-05
  0.00000000  0.30000000  0.26666667  2.083333e-05
  0.00000000  0.30000000  0.30000000  2.083333e-05
  0.00000000  0.30000000  0.33333333  2.083333e-05
  0.00000000  0.30000000  0.36666667  2.083333e-05
  0.00000000  0.30000000  0.40000000  2.083333e-05
  0.00000000  0.30000000  0.43333333  2.083333e-05
  0.00000000  0.30000000  0.46666667  2.083333e-05
  0.00000000  0.30000000  0.50000000  2.083333e-05
  0.00000000  0.30000000  0.53333333  2.083333e-05
  0.00000000  0.30000000  0.56666667  2.083333e-05
  0.00000000  0.30000000  0.60000000  2.083333e-05
  0.00000000  0.30000000  0.63333333  2.083333e-05
  0.00000000  0.30000000  0.66666667  2.083333e-05
  0.00000000  0.30000000  0.70000000  2.083333e-05
  0.00000000  0.30000000  0.73333333  2.083333e-05
  0.00000000  0.30000000  0.76666667  2.083333e-05
  0.00000000  0.30000000  0.80000000  2.083333e-05
  0.00000000  0.30000000  0.83333333  2.083333e-05
  0.00000000  0.30000000  0.86666667  2.083333e-05
  0.00000000  0.30000000  0.90000000  2.083333e-05
  0.00000000  0.30000000  0.93333333  2.083333e-05
  0.00000000  0.30000000  0.96666667  2.083333e-05
  0.00000000  0.32500000  0.00000000  2.083333e-05
  0.00000000  0.32500000  0.03333333  2.083333e-05
  0.00000000  0.32500000  0.06666667  2.083333e-05
  0.00000000  0.32500000  0.10000000  2.083333e-05
  0.00000000  0.32500000  0.13333333  2.083333e-05
  0.00000000  0.32500000  0.16666667  2.083333e-05
  0.00000000  0.32500000  0.20000000  2.083333e-05
  0.00000000  0.32500000  0.23333333  2.083333e-05
  0.00000000  0.32500000  0.26666667  2.083333e-05
  0.00000000  0.32500000  0.30000000  2.083333e-05
  0.00000000  0.32500000  0.33333333  2.083333e-05
  0.00000000  0.32500000  0.36666667  2.083333e-05
  0.00000000  0.32500000  0.40000000  2.083333e-05
  0.00000000  0.32500000  0.43333333  2.083333e-05
  0.00000000  0.32500000  0.46666667  2.083333e-05
  0.00000000  0.32500000  0.50000000  2.083333e-05
  0.00000000  0.32500000  0.53333333  2.083333e-05
  0.00000000  0.32500000  0.56666667  2.083333e-05
  0.00000000  0.32500000  0.60000000  2.083333e-05
  0.00000000  0.32500000  0.63333333  2.083333e-05
  0.00000000  0.32500000  0.66666667  2.083333e-05
  0.00000000  0.32500000  0.70000000  2.083333e-05
  0.00000000  0.32500000  0.73333333  2.083333e-05
  0.00000000  0.32500000  0.76666667  2.083333e-05
  0.00000000  0.32500000  0.80000000  2.083333e-05
  0.00000000  0.32500000  0.83333333  2.083333e-05
  0.00000000  0.32500000  0.86666667  2.083333e-05
  0.00000000  0.32500000  0.90000000  2.083333e-05
  0.00000000  0.32500000  0.93333333  2.083333e-05
  0.00000000  0.32500000  0.96666667  2.083333e-05
  0.00000000  0.35000000  0.00000000  2.083333e-05
  0.00000000  0.35000000  0.03333333  2.083333e-05
  0.00000000  0.35000000  0.06666667  2.083333e-05
  0.00000000  0.35000000  0.10000000  2.083333e-05
  0.00000000  0.35000000  0.13333333  2.083333e-05
  0.00000000  0.35000000  0.16666667  2.083333e-05
  0.00000000  0.35000000  0.20000000  2.083333e-05
  0.00000000  0.35000000  0.23333333  2.083333e-05
  0.00000000  0.35000000  0.26666667  2.083333e-05
  0.00000000  0.35000000  0.30000000  2.083333e-05
  0.00000000  0.35000000  0.33333333  2.083333e-05
  0.00000000  0.35000000  0.36666667  2.083333e-05
  0.00000000  0.35000000  0.40000000  2.083333e-05
  0.00000000  0.35000000  0.43333333  2.083333e-05
  0.00000000  0.35000000  0.46666667  2.083333e-05
  0.00000000  0.35000000  0.50000000  2.083333e-05
  0.00000000  0.35000000  0.53333333  2.083333e-05
  0.00000000  0.35000000  0.56666667  2.083333e-05
  0.00000000  0.35000000  0.60000000  2.083333e-05
  0.00000000  0.35000000  0.63333333  2.083333e-05
  0.00000000  0.35000000  0.66666667  2.083333e-05
  0.00000000  0.35000000  0.70000000  2.083333e-05
  0.00000000  0.35000000  0.73333333  2.083333e-05
  0.00000000  0.35000000  0.76666667  2.083333e-05
  0.00000000  0.35000000  0.80000000  2.083333e-05
  0.00000000  0.35000000  0.83333333  2.083333e-05
  0.00000000  0.35000000  0.86666667  2.083333e-05
  0.00000000  0.35000000  0.90000000  2.083333e-05
  0.00000000  0.35000000  0.93333333  2.083333e-05
  0.00000000  0.35000000  0.96666667  2.083333e-05
  0.00000000  0.37500000  0.00000000  2.083333e-05
  0.00000000  0.37500000  0.03333333  2.083333e-05
  0.00000000  0.37500000  0.06666667  2.083333e-05
  0.00000000  0.37500000  0.10000000  2.083333e-05
  0.00000000  0.37500000  0.13333333  2.083333e-05
  0.00000000  0.37500000  0.16666667  2.083333e-05
  0.00000000  0.37500000  0.20000000  2.083333e-05
  0.00000000  0.37500000  0.23333333  2.083333e-05
  0.00000000  0.37500000  0.26666667  2.083333e-05
  0.00000000  0.37500000  0.30000000  2.083333e-05
  0.00000000  0.37500000  0.33333333  2.083333e-05
  0.00000000  0.37500000  0.36666667  2.083333e-05
  0.00000000  0.37500000  0.40000000  2.083333e-05
  0.00000000  0.37500000  0.43333333  2.083333e-05
  0.00000000  0.37500000  0.46666667  2.083333e-05
  0.00000000  0.37500000  0.50000000  2.083333e-05
  0.00000000  0.37500000  0.53333333  2.083333e-05
  0.00000000  0.37500000  0.56666667  2.083333e-05
  0.00000000  0.37500000  0.60000000  2.083333e-05
  0.00000000  0.37500000  0.63333333  2.083333e-05
  0.00000000  0.37500000  0.66666667  2.083333e-05
  0.00000000  0.37500000  0.70000000  2.083333e-05
  0.00000000  0.37500000  0.73333333  2.083333e-05
  0.00000000  0.37500000  0.76666667  2.083333e-05
  0.00000000  0.37500000  0.80000000  2.083333e-05
  0.00000000  0.37500000  0.83333333  2.083333e-05
  0.00000000  0.37500000  0.86666667  2.083333e-05
  0.00000000  0.37500000  0.90000000  2.083333e-05
  0.00000000  0.37500000  0.93333333  2.083333e-05
  0.00000000  0.37500000  0.96666667  2.083333e-05
  0.00000000  0.40000000  0.00000000  2.083333e-05
  0.00000000  0.40000000  0.03333333  2.083333e-05
  0.00000000  0.40000000  0.06666667  2.083333e-05
  0.00000000  0.40000000  0.10000000  2.083333e-05
  0.00000000  0.40000000  0.13333333  2.083333e-05
  0.00000000  0.40000000  0.16666667  2.083333e-05
  0.00000000  0.40000000  0.20000000  2.083333e-05
  0.00000000  0.40000000  0.23333333  2.083333e-05
  0.00000000  0.40000000  0.26666667  2.083333e-05
  0.00000000  0.40000000  0.30000000  2.083333e-05
  0.00000000  0.40000000  0.33333333  2.083333e-05
  0.00000000  0.40000000  0.36666667  2.083333e-05
  0.00000000  0.40000000  0.40000000  2.083333e-05
  0.00000000  0.40000000  0.43333333  2.083333e-05
  0.00000000  0.40000000  0.46666667  2.083333e-05
  0.00000000  0.40000000  0.50000000  2.083333e-05
  0.00000000  0.40000000  0.53333333  2.083333e-05
  0.00000000  0.40000000  0.56666667  2.083333e-05
  0.00000000  0.40000000  0.60000000  2.083333e-05
  0.00000000  0.40000000  0.63333333  2.083333e-05
  0.00000000  0.40000000  0.66666667  2.083333e-05
  0.00000000  0.40000000  0.70000000  2.083333e-05
  0.00000000  0.40000000  0.73333333  2.083333e-05
  0.00000000  0.40000000  0.76666667  2.083333e-05
  0.00000000  0.40000000  0.80000000  2.083333e-05
  0.00000000  0.40000000  0.83333333  2.083333e-05
  0.00000000  0.40000000  0.86666667  2.083333e-05
  0.00000000  0.40000000  0.90000000  2.083333e-05
  0.00000000  0.40000000  0.93333333  2.083333e-05
  0.00000000  0.40000000  0.96666667  2.083333e-05
  0.00000000  0.42500000  0.00000000  2.083333e-05
  0.00000000  0.42500000  0.03333333  2.083333e-05
  0.00000000  0.42500000  0.06666667  2.083333e-05
  0.00000000  0.42500000  0.10000000  2.083333e-05
  0.00000000  0.42500000  0.13333333  2.083333e-05
  0.00000000  0.42500000  0.16666667  2.083333e-05
  0.00000000  0.42500000  0.20000000  2.083333e-05
  0.00000000  0.42500000  0.23333333  2.083333e-05
  0.00000000  0.42500000  0.26666667  2.083333e-05
  0.00000000  0.42500000  0.30000000  2.083333e-05
  0.00000000  0.42500000  0.33333333  2.083333e-05
  0.00000000  0.42500000  0.36666667  2.083333e-05
  0.00000000  0.42500000  0.40000000  2.083333e-05
  0.00000000  0.42500000  0.43333333  2.083333e-05
  0.00000000  0.42500000  0.46666667  2.083333e-05
  0.00000000  0.42500000  0.50000000  2.083333e-05
  0.00000000  0.42500000  0.53333333  2.083333e-05
  0.00000000  0.42500000  0.56666667  2.083333e-05
  0.00000000  0.42500000  0.60000000  2.083333e-05
  0.00000000  0.42500000  0.63333333  2.083333e-05
  0.00000000  0.42500000  0.66666667  2.083333e-05
  0.00000000  0.42500000  0.70000000  2.083333e-05
  0.00000000  0.42500000  0.73333333  2.083333e-05
  0.00000000  0.42500000  0.76666667  2.083333e-05
  0.00000000  0.42500000  0.80000000  2.083333e-05
  0.00000000  0.42500000  0.83333333  2.083333e-05
  0.00000000  0.42500000  0.86666667  2.083333e-05
  0.00000000  0.42500000  0.90000000  2.083333e-05
  0.00000000  0.42500000  0.93333333  2.083333e-05
  0.00000000  0.42500000  0.96666667  2.083333e-05
  0.00000000  0.45000000  0.00000000  2.083333e-05
  0.00000000  0.45000000  0.03333333  2.083333e-05
  0.00000000  0.45000000  0.06666667  2.083333e-05
  0.00000000  0.45000000  0.10000000  2.083333e-05
  0.00000000  0.45000000  0.13333333  2.083333e-05
  0.00000000  0.45000000  0.16666667  2.083333e-05
  0.00000000  0.45000000  0.20000000  2.083333e-05
  0.00000000  0.45000000  0.23333333  2.083333e-05
  0.00000000  0.45000000  0.26666667  2.083333e-05
  0.00000000  0.45000000  0.30000000  2.083333e-05
  0.00000000  0.45000000  0.33333333  2.083333e-05
  0.00000000  0.45000000  0.36666667  2.083333e-05
  0.00000000  0.45000000  0.40000000  2.083333e-05
  0.00000000  0.45000000  0.43333333  2.083333e-05
  0.00000000  0.45000000  0.46666667  2.083333e-05
  0.00000000  0.45000000  0.50000000  2.083333e-05
  0.00000000  0.45000000  0.53333333  2.083333e-05
  0.00000000  0.45000000  0.56666667  2.083333e-05
  0.00000000  0.45000000  0.60000000  2.083333e-05
  0.00000000  0.45000000  0.63333333  2.083333e-05
  0.00000000  0.45000000  0.66666667  2.083333e-05
  0.00000000  0.45000000  0.70000000  2.083333e-05
  0.00000000  0.45000000  0.73333333  2.083333e-05
  0.00000000  0.45000000  0.76666667  2.083333e-05
  0.00000000  0.45000000  0.80000000  2.083333e-05
  0.00000000  0.45000000  0.83333333  2.083333e-05