Generated by VASPKIT code
 1.000000
    6.7128759999999996    0.0000000000000000    0.0000000000000000
    0.0000000000000000    6.7128759999999996    0.0000000000000000
    0.0000000000000000    0.0000000000000000   44.3093500000000020
    Nb P
    48    48
Selective Dynamics
Direct
    0.2500000000000000    0.2500000000000000    0.3493283037349905    F  F  F    Nb001
    0.2500000000000000    0.2500000000000000    0.6074329701315864    T  T  T    Nb002
    0.2500000000000000    0.2500000000000000    0.8655376365281819    T  T  T    Nb003
    0.2500000000000000    0.7499999999999999    0.3493283037349905    F  F  F    Nb004
    0.2500000000000000    0.7499999999999999    0.6074329701315864    T  T  T    Nb005
    0.2500000000000000    0.7499999999999999    0.8655376365281819    T  T  T    Nb006
    0.7499999999999999    0.2500000000000000    0.3493283037349905    F  F  F    Nb007
    0.7499999999999999    0.2500000000000000    0.6074329701315864    T  T  T    Nb008
    0.7499999999999999    0.2500000000000000    0.8655376365281819    T  T  T    Nb009
    0.7499999999999999    0.7499999999999999    0.3493283037349905    F  F  F    Nb010
    0.7499999999999999    0.7499999999999999    0.6074329701315864    T  T  T    Nb011
    0.7499999999999999    0.7499999999999999    0.8655376365281819    T  T  T    Nb012
    0.2500000000000000    0.0000000000000000    0.1557498039375436    F  F  F    Nb013
    0.2500000000000000    0.0000000000000000    0.4138544703341393    T  T  T    Nb014
    0.2500000000000000    0.0000000000000000    0.6719591367307352    T  T  T    Nb015
    0.2500000000000000    0.5000000000000000    0.1557498039375436    F  F  F    Nb016
    0.2500000000000000    0.5000000000000000    0.4138544703341393    T  T  T    Nb017
    0.2500000000000000    0.5000000000000000    0.6719591367307352    T  T  T    Nb018
    0.7499999999999999    0.0000000000000000    0.1557498039375436    F  F  F    Nb019
    0.7499999999999999    0.0000000000000000    0.4138544703341393    T  T  T    Nb020
    0.7499999999999999    0.0000000000000000    0.6719591367307352    T  T  T    Nb021
    0.7499999999999999    0.5000000000000000    0.1557498039375436    F  F  F    Nb022
    0.7499999999999999    0.5000000000000000    0.4138544703341393    T  T  T    Nb023
    0.7499999999999999    0.5000000000000000    0.6719591367307352    T  T  T    Nb024
    0.0000000000000000    0.0000000000000000    0.2202759705366925    F  F  F    Nb025
    0.0000000000000000    0.0000000000000000    0.4783806369332883    T  T  T    Nb026
    0.0000000000000000    0.0000000000000000    0.7364853033298842    T  T  T    Nb027
    0.0000000000000000    0.5000000000000000    0.2202759705366925    F  F  F    Nb028
    0.0000000000000000    0.5000000000000000    0.4783806369332883    T  T  T    Nb029
    0.0000000000000000    0.5000000000000000    0.7364853033298842    T  T  T    Nb030
    0.5000000000000000    0.0000000000000000    0.2202759705366925    F  F  F    Nb031
    0.5000000000000000    0.0000000000000000    0.4783806369332883    T  T  T    Nb032
    0.5000000000000000    0.0000000000000000    0.7364853033298842    T  T  T    Nb033
    0.5000000000000000    0.5000000000000000    0.2202759705366925    F  F  F    Nb034
    0.5000000000000000    0.5000000000000000    0.4783806369332883    T  T  T    Nb035
    0.5000000000000000    0.5000000000000000    0.7364853033298842    T  T  T    Nb036
    0.0000000000000000    0.2500000000000000    0.2848021371358415    F  F  F    Nb037
    0.0000000000000000    0.2500000000000000    0.5429068035324374    T  T  T    Nb038
    0.0000000000000000    0.2500000000000000    0.8010114699290332    T  T  T    Nb039
    0.0000000000000000    0.7499999999999999    0.2848021371358415    F  F  F    Nb040
    0.0000000000000000    0.7499999999999999    0.5429068035324374    T  T  T    Nb041
    0.0000000000000000    0.7499999999999999    0.8010114699290332    T  T  T    Nb042
    0.5000000000000000    0.2500000000000000    0.2848021371358415    F  F  F    Nb043
    0.5000000000000000    0.2500000000000000    0.5429068035324374    T  T  T    Nb044
    0.5000000000000000    0.2500000000000000    0.8010114699290332    T  T  T    Nb045
    0.5000000000000000    0.7499999999999999    0.2848021371358415    F  F  F    Nb046
    0.5000000000000000    0.7499999999999999    0.5429068035324374    T  T  T    Nb047
    0.5000000000000000    0.7499999999999999    0.8010114699290332    T  T  T    Nb048
    0.0000000000000000    0.0000000000000000    0.3280408632692648    F  F  F     P001
    0.0000000000000000    0.0000000000000000    0.5861455296658606    T  T  T     P002
    0.0000000000000000    0.0000000000000000    0.8442501960624562    T  T  T     P003
    0.0000000000000000    0.5000000000000000    0.3280408632692648    F  F  F     P004
    0.0000000000000000    0.5000000000000000    0.5861455296658606    T  T  T     P005
    0.0000000000000000    0.5000000000000000    0.8442501960624562    T  T  T     P006
    0.5000000000000000    0.0000000000000000    0.3280408632692648    F  F  F     P007
    0.5000000000000000    0.0000000000000000    0.5861455296658606    T  T  T     P008
    0.5000000000000000    0.0000000000000000    0.8442501960624562    T  T  T     P009
    0.5000000000000000    0.5000000000000000    0.3280408632692648    F  F  F     P010
    0.5000000000000000    0.5000000000000000    0.5861455296658606    T  T  T     P011
    0.5000000000000000    0.5000000000000000    0.8442501960624562    T  T  T     P012
    0.0000000000000000    0.2500000000000000    0.1344623634718180    F  F  F     P013
    0.0000000000000000    0.2500000000000000    0.3925670298684138    T  T  T     P014
    0.0000000000000000    0.2500000000000000    0.6506716962650096    T  T  T     P015
    0.0000000000000000    0.7499999999999999    0.1344623634718180    F  F  F     P016
    0.0000000000000000    0.7499999999999999    0.3925670298684138    T  T  T     P017
    0.0000000000000000    0.7499999999999999    0.6506716962650096    T  T  T     P018
    0.5000000000000000    0.2500000000000000    0.1344623634718180    F  F  F     P019
    0.5000000000000000    0.2500000000000000    0.3925670298684138    T  T  T     P020
    0.5000000000000000    0.2500000000000000    0.6506716962650096    T  T  T     P021
    0.5000000000000000    0.7499999999999999    0.1344623634718180    F  F  F     P022
    0.5000000000000000    0.7499999999999999    0.3925670298684138    T  T  T     P023
    0.5000000000000000    0.7499999999999999    0.6506716962650096    T  T  T     P024
    0.2500000000000000    0.2500000000000000    0.1989885300709670    F  F  F     P025
    0.2500000000000000    0.2500000000000000    0.4570931964675627    T  T  T     P026
    0.2500000000000000    0.2500000000000000    0.7151978628641587    T  T  T     P027
    0.2500000000000000    0.7499999999999999    0.1989885300709670    F  F  F     P028
    0.2500000000000000    0.7499999999999999    0.4570931964675627    T  T  T     P029
    0.2500000000000000    0.7499999999999999    0.7151978628641587    T  T  T     P030
    0.7499999999999999    0.2500000000000000    0.1989885300709670    F  F  F     P031
    0.7499999999999999    0.2500000000000000    0.4570931964675627    T  T  T     P032
    0.7499999999999999    0.2500000000000000    0.7151978628641587    T  T  T     P033
    0.7499999999999999    0.7499999999999999    0.1989885300709670    F  F  F     P034
    0.7499999999999999    0.7499999999999999    0.4570931964675627    T  T  T     P035
    0.7499999999999999    0.7499999999999999    0.7151978628641587    T  T  T     P036
    0.2500000000000000    0.0000000000000000    0.2635146966701159    F  F  F     P037
    0.2500000000000000    0.0000000000000000    0.5216193630667116    T  T  T     P038
    0.2500000000000000    0.0000000000000000    0.7797240294633074    T  T  T     P039
    0.2500000000000000    0.5000000000000000    0.2635146966701159    F  F  F     P040
    0.2500000000000000    0.5000000000000000    0.5216193630667116    T  T  T     P041
    0.2500000000000000    0.5000000000000000    0.7797240294633074    T  T  T     P042
    0.7499999999999999    0.0000000000000000    0.2635146966701159    F  F  F     P043
    0.7499999999999999    0.0000000000000000    0.5216193630667116    T  T  T     P044
    0.7499999999999999    0.0000000000000000    0.7797240294633074    T  T  T     P045
    0.7499999999999999    0.5000000000000000    0.2635146966701159    F  F  F     P046
    0.7499999999999999    0.5000000000000000    0.5216193630667116    T  T  T     P047
    0.7499999999999999    0.5000000000000000    0.7797240294633074    T  T  T     P048
    0.2500000000000000    0.2500000000000000    0.8222989103947584    T  T  T     H001
    0.2500000000000000    0.7499999999999999    0.8222989103947584    T  T  T     H002
    0.7499999999999999    0.2500000000000000    0.8222989103947584    T  T  T     H003
    0.7499999999999999    0.7499999999999999    0.8222989103947584    T  T  T     H004
